 conv_tol = 1d-10 
 conv_window = 5 
 num_iter = 400 

Begin Projections
 V:l=2,mr=2,3,5 
End Projections

 dis_conv_tol = 1d-10 
 dis_conv_window = 9 
 dis_num_iter = 200 
 use_ws_distance = .false.
search_shells=12
 
 num_wann = 3 
 num_bands = 6
 exclude_bands : 1-20,27-40
 
 dis_win_min = 15.0 
 dis_win_max = 18.5 
 dis_spheres_first_wann = 1
 dis_spheres_num = 1

Begin dis_spheres
  0.5  0.5  0.5  0.2
End dis_spheres


Begin Unit_Cell_Cart
Ang
   3.7201157722     0.0000000000     0.0000000000
   0.0000000000     3.7201157722     0.0000000000
   0.0000000000     0.0000000000     4.0549261917 
End Unit_Cell_Cart

Begin Atoms_Cart
Ang
La      0.0000000000   0.0000000000   0.0000000000
V       1.8600578861   1.8600578861   2.0274630959
O       0.0000000000   1.8600578861   2.0274630959
O       1.8600578861   0.0000000000   2.0274630959
O       1.8600578861   1.8600578861   0.0000000000
End Atoms_Cart

mp_grid = 6 6 6 

Begin Kpoints
    0.0000000000000000    0.0000000000000000    0.0000000000000000
    0.0000000000000000    0.0000000000000000    0.1666666666666667
    0.0000000000000000    0.0000000000000000    0.3333333333333333
    0.0000000000000000    0.0000000000000000    0.5000000000000000
    0.0000000000000000    0.0000000000000000    0.6666666666666666
    0.0000000000000000    0.0000000000000000    0.8333333333333334
    0.0000000000000000    0.1666666666666667    0.0000000000000000
    0.0000000000000000    0.1666666666666667    0.1666666666666667
    0.0000000000000000    0.1666666666666667    0.3333333333333333
    0.0000000000000000    0.1666666666666667    0.5000000000000000
    0.0000000000000000    0.1666666666666667    0.6666666666666666
    0.0000000000000000    0.1666666666666667    0.8333333333333334
    0.0000000000000000    0.3333333333333333    0.0000000000000000
    0.0000000000000000    0.3333333333333333    0.1666666666666667
    0.0000000000000000    0.3333333333333333    0.3333333333333333
    0.0000000000000000    0.3333333333333333    0.5000000000000000
    0.0000000000000000    0.3333333333333333    0.6666666666666666
    0.0000000000000000    0.3333333333333333    0.8333333333333334
    0.0000000000000000    0.5000000000000000    0.0000000000000000
    0.0000000000000000    0.5000000000000000    0.1666666666666667
    0.0000000000000000    0.5000000000000000    0.3333333333333333
    0.0000000000000000    0.5000000000000000    0.5000000000000000
    0.0000000000000000    0.5000000000000000    0.6666666666666666
    0.0000000000000000    0.5000000000000000    0.8333333333333334
    0.0000000000000000    0.6666666666666666    0.0000000000000000
    0.0000000000000000    0.6666666666666666    0.1666666666666667
    0.0000000000000000    0.6666666666666666    0.3333333333333333
    0.0000000000000000    0.6666666666666666    0.5000000000000000
    0.0000000000000000    0.6666666666666666    0.6666666666666666
    0.0000000000000000    0.6666666666666666    0.8333333333333334
    0.0000000000000000    0.8333333333333334    0.0000000000000000
    0.0000000000000000    0.8333333333333334    0.1666666666666667
    0.0000000000000000    0.8333333333333334    0.3333333333333333
    0.0000000000000000    0.8333333333333334    0.5000000000000000
    0.0000000000000000    0.8333333333333334    0.6666666666666666
    0.0000000000000000    0.8333333333333334    0.8333333333333334
    0.1666666666666667    0.0000000000000000    0.0000000000000000
    0.1666666666666667    0.0000000000000000    0.1666666666666667
    0.1666666666666667    0.0000000000000000    0.3333333333333333
    0.1666666666666667    0.0000000000000000    0.5000000000000000
    0.1666666666666667    0.0000000000000000    0.6666666666666666
    0.1666666666666667    0.0000000000000000    0.8333333333333334
    0.1666666666666667    0.1666666666666667    0.0000000000000000
    0.1666666666666667    0.1666666666666667    0.1666666666666667
    0.1666666666666667    0.1666666666666667    0.3333333333333333
    0.1666666666666667    0.1666666666666667    0.5000000000000000
    0.1666666666666667    0.1666666666666667    0.6666666666666666
    0.1666666666666667    0.1666666666666667    0.8333333333333334
    0.1666666666666667    0.3333333333333333    0.0000000000000000
    0.1666666666666667    0.3333333333333333    0.1666666666666667
    0.1666666666666667    0.3333333333333333    0.3333333333333333
    0.1666666666666667    0.3333333333333333    0.5000000000000000
    0.1666666666666667    0.3333333333333333    0.6666666666666666
    0.1666666666666667    0.3333333333333333    0.8333333333333334
    0.1666666666666667    0.5000000000000000    0.0000000000000000
    0.1666666666666667    0.5000000000000000    0.1666666666666667
    0.1666666666666667    0.5000000000000000    0.3333333333333333
    0.1666666666666667    0.5000000000000000    0.5000000000000000
    0.1666666666666667    0.5000000000000000    0.6666666666666666
    0.1666666666666667    0.5000000000000000    0.8333333333333334
    0.1666666666666667    0.6666666666666666    0.0000000000000000
    0.1666666666666667    0.6666666666666666    0.1666666666666667
    0.1666666666666667    0.6666666666666666    0.3333333333333333
    0.1666666666666667    0.6666666666666666    0.5000000000000000
    0.1666666666666667    0.6666666666666666    0.6666666666666666
    0.1666666666666667    0.6666666666666666    0.8333333333333334
    0.1666666666666667    0.8333333333333334    0.0000000000000000
    0.1666666666666667    0.8333333333333334    0.1666666666666667
    0.1666666666666667    0.8333333333333334    0.3333333333333333
    0.1666666666666667    0.8333333333333334    0.5000000000000000
    0.1666666666666667    0.8333333333333334    0.6666666666666666
    0.1666666666666667    0.8333333333333334    0.8333333333333334
    0.3333333333333333    0.0000000000000000    0.0000000000000000
    0.3333333333333333    0.0000000000000000    0.1666666666666667
    0.3333333333333333    0.0000000000000000    0.3333333333333333
    0.3333333333333333    0.0000000000000000    0.5000000000000000
    0.3333333333333333    0.0000000000000000    0.6666666666666666
    0.3333333333333333    0.0000000000000000    0.8333333333333334
    0.3333333333333333    0.1666666666666667    0.0000000000000000
    0.3333333333333333    0.1666666666666667    0.1666666666666667
    0.3333333333333333    0.1666666666666667    0.3333333333333333
    0.3333333333333333    0.1666666666666667    0.5000000000000000
    0.3333333333333333    0.1666666666666667    0.6666666666666666
    0.3333333333333333    0.1666666666666667    0.8333333333333334
    0.3333333333333333    0.3333333333333333    0.0000000000000000
    0.3333333333333333    0.3333333333333333    0.1666666666666667
    0.3333333333333333    0.3333333333333333    0.3333333333333333
    0.3333333333333333    0.3333333333333333    0.5000000000000000
    0.3333333333333333    0.3333333333333333    0.6666666666666666
    0.3333333333333333    0.3333333333333333    0.8333333333333334
    0.3333333333333333    0.5000000000000000    0.0000000000000000
    0.3333333333333333    0.5000000000000000    0.1666666666666667
    0.3333333333333333    0.5000000000000000    0.3333333333333333
    0.3333333333333333    0.5000000000000000    0.5000000000000000
    0.3333333333333333    0.5000000000000000    0.6666666666666666
    0.3333333333333333    0.5000000000000000    0.8333333333333334
    0.3333333333333333    0.6666666666666666    0.0000000000000000
    0.3333333333333333    0.6666666666666666    0.1666666666666667
    0.3333333333333333    0.6666666666666666    0.3333333333333333
    0.3333333333333333    0.6666666666666666    0.5000000000000000
    0.3333333333333333    0.6666666666666666    0.6666666666666666
    0.3333333333333333    0.6666666666666666    0.8333333333333334
    0.3333333333333333    0.8333333333333334    0.0000000000000000
    0.3333333333333333    0.8333333333333334    0.1666666666666667
    0.3333333333333333    0.8333333333333334    0.3333333333333333
    0.3333333333333333    0.8333333333333334    0.5000000000000000
    0.3333333333333333    0.8333333333333334    0.6666666666666666
    0.3333333333333333    0.8333333333333334    0.8333333333333334
    0.5000000000000000    0.0000000000000000    0.0000000000000000
    0.5000000000000000    0.0000000000000000    0.1666666666666667
    0.5000000000000000    0.0000000000000000    0.3333333333333333
    0.5000000000000000    0.0000000000000000    0.5000000000000000
    0.5000000000000000    0.0000000000000000    0.6666666666666666
    0.5000000000000000    0.0000000000000000    0.8333333333333334
    0.5000000000000000    0.1666666666666667    0.0000000000000000
    0.5000000000000000    0.1666666666666667    0.1666666666666667
    0.5000000000000000    0.1666666666666667    0.3333333333333333
    0.5000000000000000    0.1666666666666667    0.5000000000000000
    0.5000000000000000    0.1666666666666667    0.6666666666666666
    0.5000000000000000    0.1666666666666667    0.8333333333333334
    0.5000000000000000    0.3333333333333333    0.0000000000000000
    0.5000000000000000    0.3333333333333333    0.1666666666666667
    0.5000000000000000    0.3333333333333333    0.3333333333333333
    0.5000000000000000    0.3333333333333333    0.5000000000000000
    0.5000000000000000    0.3333333333333333    0.6666666666666666
    0.5000000000000000    0.3333333333333333    0.8333333333333334
    0.5000000000000000    0.5000000000000000    0.0000000000000000
    0.5000000000000000    0.5000000000000000    0.1666666666666667
    0.5000000000000000    0.5000000000000000    0.3333333333333333
    0.5000000000000000    0.5000000000000000    0.5000000000000000
    0.5000000000000000    0.5000000000000000    0.6666666666666666
    0.5000000000000000    0.5000000000000000    0.8333333333333334
    0.5000000000000000    0.6666666666666666    0.0000000000000000
    0.5000000000000000    0.6666666666666666    0.1666666666666667
    0.5000000000000000    0.6666666666666666    0.3333333333333333
    0.5000000000000000    0.6666666666666666    0.5000000000000000
    0.5000000000000000    0.6666666666666666    0.6666666666666666
    0.5000000000000000    0.6666666666666666    0.8333333333333334
    0.5000000000000000    0.8333333333333334    0.0000000000000000
    0.5000000000000000    0.8333333333333334    0.1666666666666667
    0.5000000000000000    0.8333333333333334    0.3333333333333333
    0.5000000000000000    0.8333333333333334    0.5000000000000000
    0.5000000000000000    0.8333333333333334    0.6666666666666666
    0.5000000000000000    0.8333333333333334    0.8333333333333334
    0.6666666666666666    0.0000000000000000    0.0000000000000000
    0.6666666666666666    0.0000000000000000    0.1666666666666667
    0.6666666666666666    0.0000000000000000    0.3333333333333333
    0.6666666666666666    0.0000000000000000    0.5000000000000000
    0.6666666666666666    0.0000000000000000    0.6666666666666666
    0.6666666666666666    0.0000000000000000    0.8333333333333334
    0.6666666666666666    0.1666666666666667    0.0000000000000000
    0.6666666666666666    0.1666666666666667    0.1666666666666667
    0.6666666666666666    0.1666666666666667    0.3333333333333333
    0.6666666666666666    0.1666666666666667    0.5000000000000000
    0.6666666666666666    0.1666666666666667    0.6666666666666666
    0.6666666666666666    0.1666666666666667    0.8333333333333334
    0.6666666666666666    0.3333333333333333    0.0000000000000000
    0.6666666666666666    0.3333333333333333    0.1666666666666667
    0.6666666666666666    0.3333333333333333    0.3333333333333333
    0.6666666666666666    0.3333333333333333    0.5000000000000000
    0.6666666666666666    0.3333333333333333    0.6666666666666666
    0.6666666666666666    0.3333333333333333    0.8333333333333334
    0.6666666666666666    0.5000000000000000    0.0000000000000000
    0.6666666666666666    0.5000000000000000    0.1666666666666667
    0.6666666666666666    0.5000000000000000    0.3333333333333333
    0.6666666666666666    0.5000000000000000    0.5000000000000000
    0.6666666666666666    0.5000000000000000    0.6666666666666666
    0.6666666666666666    0.5000000000000000    0.8333333333333334
    0.6666666666666666    0.6666666666666666    0.0000000000000000
    0.6666666666666666    0.6666666666666666    0.1666666666666667
    0.6666666666666666    0.6666666666666666    0.3333333333333333
    0.6666666666666666    0.6666666666666666    0.5000000000000000
    0.6666666666666666    0.6666666666666666    0.6666666666666666
    0.6666666666666666    0.6666666666666666    0.8333333333333334
    0.6666666666666666    0.8333333333333334    0.0000000000000000
    0.6666666666666666    0.8333333333333334    0.1666666666666667
    0.6666666666666666    0.8333333333333334    0.3333333333333333
    0.6666666666666666    0.8333333333333334    0.5000000000000000
    0.6666666666666666    0.8333333333333334    0.6666666666666666
    0.6666666666666666    0.8333333333333334    0.8333333333333334
    0.8333333333333334    0.0000000000000000    0.0000000000000000
    0.8333333333333334    0.0000000000000000    0.1666666666666667
    0.8333333333333334    0.0000000000000000    0.3333333333333333
    0.8333333333333334    0.0000000000000000    0.5000000000000000
    0.8333333333333334    0.0000000000000000    0.6666666666666666
    0.8333333333333334    0.0000000000000000    0.8333333333333334
    0.8333333333333334    0.1666666666666667    0.0000000000000000
    0.8333333333333334    0.1666666666666667    0.1666666666666667
    0.8333333333333334    0.1666666666666667    0.3333333333333333
    0.8333333333333334    0.1666666666666667    0.5000000000000000
    0.8333333333333334    0.1666666666666667    0.6666666666666666
    0.8333333333333334    0.1666666666666667    0.8333333333333334
    0.8333333333333334    0.3333333333333333    0.0000000000000000
    0.8333333333333334    0.3333333333333333    0.1666666666666667
    0.8333333333333334    0.3333333333333333    0.3333333333333333
    0.8333333333333334    0.3333333333333333    0.5000000000000000
    0.8333333333333334    0.3333333333333333    0.6666666666666666
    0.8333333333333334    0.3333333333333333    0.8333333333333334
    0.8333333333333334    0.5000000000000000    0.0000000000000000
    0.8333333333333334    0.5000000000000000    0.1666666666666667
    0.8333333333333334    0.5000000000000000    0.3333333333333333
    0.8333333333333334    0.5000000000000000    0.5000000000000000
    0.8333333333333334    0.5000000000000000    0.6666666666666666
    0.8333333333333334    0.5000000000000000    0.8333333333333334
    0.8333333333333334    0.6666666666666666    0.0000000000000000
    0.8333333333333334    0.6666666666666666    0.1666666666666667
    0.8333333333333334    0.6666666666666666    0.3333333333333333
    0.8333333333333334    0.6666666666666666    0.5000000000000000
    0.8333333333333334    0.6666666666666666    0.6666666666666666
    0.8333333333333334    0.6666666666666666    0.8333333333333334
    0.8333333333333334    0.8333333333333334    0.0000000000000000
    0.8333333333333334    0.8333333333333334    0.1666666666666667
    0.8333333333333334    0.8333333333333334    0.3333333333333333
    0.8333333333333334    0.8333333333333334    0.5000000000000000
    0.8333333333333334    0.8333333333333334    0.6666666666666666
    0.8333333333333334    0.8333333333333334    0.8333333333333334
End Kpoints


