 &CONTROL
   calculation          =  'scf',
   outdir               =  './',
   prefix               =  'LaVO3',
   pseudo_dir           =  '../../pseudo/',
   restart_mode         =  'from_scratch'
 /

 &SYSTEM
   celldm(1)            =  7.03,
   celldm(3)            =  1.09,
   degauss              =  0.02,
   ecutrho              =  300,
   ecutwfc              =  30,
   ibrav                =  6,
   nat                  =  5,
   ntyp                 =  3,
   occupations          =  'smearing',
   smearing             =  'mp',
 /

 &ELECTRONS
   conv_thr             =  1d-6,
   mixing_beta          =  0.5,
 /

ATOMIC_SPECIES 
  La   138.90547   La.pbe-nsp-van.UPF 
  V   50.9415   V.pbe-sp-van.UPF 
  O   15.9994   O.pbe-rrkjus.UPF 


ATOMIC_POSITIONS crystal
  La      0.000000000000000   0.000000000000000   0.000000000000000
  V       0.500000000000000   0.500000000000000   0.500000000000000
  O       0.000000000000000   0.500000000000000   0.500000000000000
  O       0.500000000000000   0.000000000000000   0.500000000000000
  O       0.500000000000000   0.500000000000000   0.000000000000000

K_POINTS automatic
  6   6   6   0   0   0 

