    num_bands         =   8        
    num_print_cycles  =   20
    num_dump_cycles   =   500      
    num_wann          =   4 
    use_ws_distance = .false.
search_shells=12    
    bands_plot        = true
    dis_win_min       = -8.0d0       
    dis_win_max       = 14.3d0
    dis_froz_min      = -8.0d0
    dis_froz_max      =  6.7d0
    dis_num_iter      =  50 
    dis_mix_ratio     =  0.5d0

    num_iter          = 50

    mp_grid           = 4 4 4


    postproc_setup    = F

begin atoms_frac
Li  0.000  0.000  0.000
end atoms_frac

begin projections
c=0.0,0.0,0.0:sp3
end projections


begin kpoint_path
L 0.50000 0.50000 0.50000 G 0.00000 0.00000 0.00000
end kpoint_path


begin unit_cell_cart
 1.74549095749855  1.74549095749855  1.74549095749855
-1.74549095749855  1.74549095749855  1.74549095749855
-1.74549095749855 -1.74549095749855  1.74549095749855
end unit_cell_cart

begin kpoints
0.0000  0.0000   0.0000   
0.0000  0.2500     0.0000   
0.0000  0.5000     0.0000   
0.0000  0.7500     0.0000   
0.2500  0.0000     0.0000   
0.2500  0.2500     0.0000   
0.2500  0.5000     0.0000   
0.2500  0.7500     0.0000   
0.5000  0.0000     0.0000   
0.5000  0.2500     0.0000   
0.5000  0.5000     0.0000   
0.5000  0.7500     0.0000   
0.7500  0.0000     0.0000   
0.7500  0.2500     0.0000   
0.7500  0.5000     0.0000   
0.7500  0.7500     0.0000   
0.0000  0.0000   0.2500   
0.0000  0.2500   0.2500   
0.0000  0.5000   0.2500   
0.0000  0.7500   0.2500   
0.2500  0.0000   0.2500   
0.2500  0.2500   0.2500   
0.2500  0.5000   0.2500   
0.2500  0.7500   0.2500   
0.5000  0.0000   0.2500   
0.5000  0.2500   0.2500   
0.5000  0.5000   0.2500   
0.5000  0.7500   0.2500   
0.7500  0.0000   0.2500   
0.7500  0.2500   0.2500   
0.7500  0.5000   0.2500   
0.7500  0.7500   0.2500   
0.0000  0.0000   0.5000   
0.0000  0.2500   0.5000   
0.0000  0.5000   0.5000   
0.0000  0.7500   0.5000   
0.2500  0.0000   0.5000   
0.2500  0.2500   0.5000   
0.2500  0.5000   0.5000   
0.2500  0.7500   0.5000   
0.5000  0.0000   0.5000   
0.5000  0.2500   0.5000   
0.5000  0.5000   0.5000   
0.5000  0.7500   0.5000   
0.7500  0.0000   0.5000   
0.7500  0.2500   0.5000   
0.7500  0.5000   0.5000   
0.7500  0.7500   0.5000   
0.0000  0.0000   0.7500   
0.0000  0.2500   0.7500   
0.0000  0.5000   0.7500   
0.0000  0.7500   0.7500   
0.2500  0.0000   0.7500   
0.2500  0.2500   0.7500   
0.2500  0.5000   0.7500   
0.2500  0.7500   0.7500   
0.5000  0.0000   0.7500   
0.5000  0.2500   0.7500   
0.5000  0.5000   0.7500   
0.5000  0.7500   0.7500   
0.7500  0.0000   0.7500   
0.7500  0.2500   0.7500   
0.7500  0.5000   0.7500   
0.7500  0.7500   0.7500   
end kpoints


