&control
    calculation='nscf'
    restart_mode='from_scratch',
    pseudo_dir = '../../pseudo/',
    outdir='./'
    prefix='cu'
 /
 &system
    ibrav = 2, celldm(1) =6.822, nat= 1, ntyp= 1,
    ecutwfc = 30.0
    occupations='smearing', smearing='cold', degauss=0.02
    nosym=.true.,nbnd=12
 /
 &electrons
    conv_thr = 1.0e-9
    diagonalization =  'cg'
 /
ATOMIC_SPECIES
 Cu 55.85 Cu.pz-n-van_ak.UPF 
ATOMIC_POSITIONS
 Cu 0.0 0.0 0.0
K_POINTS {crystal}
 64 
0.0000  0.0000   0.0000   0.0156250
0.0000  0.2500   0.0000   0.0156250
0.0000  0.5000   0.0000   0.0156250
0.0000  0.7500   0.0000   0.0156250
0.2500  0.0000   0.0000   0.0156250
0.2500  0.2500   0.0000   0.0156250
0.2500  0.5000   0.0000   0.0156250
0.2500  0.7500   0.0000   0.0156250
0.5000  0.0000   0.0000   0.0156250
0.5000  0.2500   0.0000   0.0156250
0.5000  0.5000   0.0000   0.0156250
0.5000  0.7500   0.0000   0.0156250
0.7500  0.0000   0.0000   0.0156250
0.7500  0.2500   0.0000   0.0156250
0.7500  0.5000   0.0000   0.0156250
0.7500  0.7500   0.0000   0.0156250
0.0000  0.0000   0.2500   0.0156250
0.0000  0.2500   0.2500   0.0156250
0.0000  0.5000   0.2500   0.0156250
0.0000  0.7500   0.2500   0.0156250
0.2500  0.0000   0.2500   0.0156250
0.2500  0.2500   0.2500   0.0156250
0.2500  0.5000   0.2500   0.0156250
0.2500  0.7500   0.2500   0.0156250
0.5000  0.0000   0.2500   0.0156250
0.5000  0.2500   0.2500   0.0156250
0.5000  0.5000   0.2500   0.0156250
0.5000  0.7500   0.2500   0.0156250
0.7500  0.0000   0.2500   0.0156250
0.7500  0.2500   0.2500   0.0156250
0.7500  0.5000   0.2500   0.0156250
0.7500  0.7500   0.2500   0.0156250
0.0000  0.0000   0.5000   0.0156250
0.0000  0.2500   0.5000   0.0156250
0.0000  0.5000   0.5000   0.0156250
0.0000  0.7500   0.5000   0.0156250
0.2500  0.0000   0.5000   0.0156250
0.2500  0.2500   0.5000   0.0156250
0.2500  0.5000   0.5000   0.0156250
0.2500  0.7500   0.5000   0.0156250
0.5000  0.0000   0.5000   0.0156250
0.5000  0.2500   0.5000   0.0156250
0.5000  0.5000   0.5000   0.0156250
0.5000  0.7500   0.5000   0.0156250
0.7500  0.0000   0.5000   0.0156250
0.7500  0.2500   0.5000   0.0156250
0.7500  0.5000   0.5000   0.0156250
0.7500  0.7500   0.5000   0.0156250
0.0000  0.0000   0.7500   0.0156250
0.0000  0.2500   0.7500   0.0156250
0.0000  0.5000   0.7500   0.0156250
0.0000  0.7500   0.7500   0.0156250
0.2500  0.0000   0.7500   0.0156250
0.2500  0.2500   0.7500   0.0156250
0.2500  0.5000   0.7500   0.0156250
0.2500  0.7500   0.7500   0.0156250
0.5000  0.0000   0.7500   0.0156250
0.5000  0.2500   0.7500   0.0156250
0.5000  0.5000   0.7500   0.0156250
0.5000  0.7500   0.7500   0.0156250
0.7500  0.0000   0.7500   0.0156250
0.7500  0.2500   0.7500   0.0156250
0.7500  0.5000   0.7500   0.0156250
0.7500  0.7500   0.7500   0.0156250

