&CONTROL
  calculation = 'nscf'
  outdir = './out'
  prefix = 'W'
  pseudo_dir = '../../pseudo/'
  restart_mode = 'restart'
  wf_collect = .true.
/
&SYSTEM
  degauss =   2.0000000000d-02
  ecutrho =   2.4000000000d+02
  ecutwfc =   3.0000000000d+01
  ibrav = 0
  nat = 1
  nbnd = 21
  nosym = .true.
  ntyp = 1
  occupations = 'smearing'
  smearing = 'marzari-vanderbilt'
/
&ELECTRONS
  conv_thr =   1.0000000000d-10
  diago_full_acc = .true.
  diagonalization = 'cg'
/
ATOMIC_SPECIES
W      183.85 W_pbe_v1.2.uspp.F.UPF
ATOMIC_POSITIONS angstrom
W            0.0000000000       0.0000000000       0.0000000000 
K_POINTS crystal
1000
  0.00000000  0.00000000  0.00000000  1.000000e-03 
  0.00000000  0.00000000  0.10000000  1.000000e-03 
  0.00000000  0.00000000  0.20000000  1.000000e-03 
  0.00000000  0.00000000  0.30000000  1.000000e-03 
  0.00000000  0.00000000  0.40000000  1.000000e-03 
  0.00000000  0.00000000  0.50000000  1.000000e-03 
  0.00000000  0.00000000  0.60000000  1.000000e-03 
  0.00000000  0.00000000  0.70000000  1.000000e-03 
  0.00000000  0.00000000  0.80000000  1.000000e-03 
  0.00000000  0.00000000  0.90000000  1.000000e-03 
  0.00000000  0.10000000  0.00000000  1.000000e-03 
  0.00000000  0.10000000  0.10000000  1.000000e-03 
  0.00000000  0.10000000  0.20000000  1.000000e-03 
  0.00000000  0.10000000  0.30000000  1.000000e-03 
  0.00000000  0.10000000  0.40000000  1.000000e-03 
  0.00000000  0.10000000  0.50000000  1.000000e-03 
  0.00000000  0.10000000  0.60000000  1.000000e-03 
  0.00000000  0.10000000  0.70000000  1.000000e-03 
  0.00000000  0.10000000  0.80000000  1.000000e-03 
  0.00000000  0.10000000  0.90000000  1.000000e-03 
  0.00000000  0.20000000  0.00000000  1.000000e-03 
  0.00000000  0.20000000  0.10000000  1.000000e-03 
  0.00000000  0.20000000  0.20000000  1.000000e-03 
  0.00000000  0.20000000  0.30000000  1.000000e-03 
  0.00000000  0.20000000  0.40000000  1.000000e-03 
  0.00000000  0.20000000  0.50000000  1.000000e-03 
  0.00000000  0.20000000  0.60000000  1.000000e-03 
  0.00000000  0.20000000  0.70000000  1.000000e-03 
  0.00000000  0.20000000  0.80000000  1.000000e-03 
  0.00000000  0.20000000  0.90000000  1.000000e-03 
  0.00000000  0.30000000  0.00000000  1.000000e-03 
  0.00000000  0.30000000  0.10000000  1.000000e-03 
  0.00000000  0.30000000  0.20000000  1.000000e-03 
  0.00000000  0.30000000  0.30000000  1.000000e-03 
  0.00000000  0.30000000  0.40000000  1.000000e-03 
  0.00000000  0.30000000  0.50000000  1.000000e-03 
  0.00000000  0.30000000  0.60000000  1.000000e-03 
  0.00000000  0.30000000  0.70000000  1.000000e-03 
  0.00000000  0.30000000  0.80000000  1.000000e-03 
  0.00000000  0.30000000  0.90000000  1.000000e-03 
  0.00000000  0.40000000  0.00000000  1.000000e-03 
  0.00000000  0.40000000  0.10000000  1.000000e-03 
  0.00000000  0.40000000  0.20000000  1.000000e-03 
  0.00000000  0.40000000  0.30000000  1.000000e-03 
  0.00000000  0.40000000  0.40000000  1.000000e-03 
  0.00000000  0.40000000  0.50000000  1.000000e-03 
  0.00000000  0.40000000  0.60000000  1.000000e-03 
  0.00000000  0.40000000  0.70000000  1.000000e-03 
  0.00000000  0.40000000  0.80000000  1.000000e-03 
  0.00000000  0.40000000  0.90000000  1.000000e-03 
  0.00000000  0.50000000  0.00000000  1.000000e-03 
  0.00000000  0.50000000  0.10000000  1.000000e-03 
  0.00000000  0.50000000  0.20000000  1.000000e-03 
  0.00000000  0.50000000  0.30000000  1.000000e-03 
  0.00000000  0.50000000  0.40000000  1.000000e-03 
  0.00000000  0.50000000  0.50000000  1.000000e-03 
  0.00000000  0.50000000  0.60000000  1.000000e-03 
  0.00000000  0.50000000  0.70000000  1.000000e-03 
  0.00000000  0.50000000  0.80000000  1.000000e-03 
  0.00000000  0.50000000  0.90000000  1.000000e-03 
  0.00000000  0.60000000  0.00000000  1.000000e-03 
  0.00000000  0.60000000  0.10000000  1.000000e-03 
  0.00000000  0.60000000  0.20000000  1.000000e-03 
  0.00000000  0.60000000  0.30000000  1.000000e-03 
  0.00000000  0.60000000  0.40000000  1.000000e-03 
  0.00000000  0.60000000  0.50000000  1.000000e-03 
  0.00000000  0.60000000  0.60000000  1.000000e-03 
  0.00000000  0.60000000  0.70000000  1.000000e-03 
  0.00000000  0.60000000  0.80000000  1.000000e-03 
  0.00000000  0.60000000  0.90000000  1.000000e-03 
  0.00000000  0.70000000  0.00000000  1.000000e-03 
  0.00000000  0.70000000  0.10000000  1.000000e-03 
  0.00000000  0.70000000  0.20000000  1.000000e-03 
  0.00000000  0.70000000  0.30000000  1.000000e-03 
  0.00000000  0.70000000  0.40000000  1.000000e-03 
  0.00000000  0.70000000  0.50000000  1.000000e-03 
  0.00000000  0.70000000  0.60000000  1.000000e-03 
  0.00000000  0.70000000  0.70000000  1.000000e-03 
  0.00000000  0.70000000  0.80000000  1.000000e-03 
  0.00000000  0.70000000  0.90000000  1.000000e-03 
  0.00000000  0.80000000  0.00000000  1.000000e-03 
  0.00000000  0.80000000  0.10000000  1.000000e-03 
  0.00000000  0.80000000  0.20000000  1.000000e-03 
  0.00000000  0.80000000  0.30000000  1.000000e-03 
  0.00000000  0.80000000  0.40000000  1.000000e-03 
  0.00000000  0.80000000  0.50000000  1.000000e-03 
  0.00000000  0.80000000  0.60000000  1.000000e-03 
  0.00000000  0.80000000  0.70000000  1.000000e-03 
  0.00000000  0.80000000  0.80000000  1.000000e-03 
  0.00000000  0.80000000  0.90000000  1.000000e-03 
  0.00000000  0.90000000  0.00000000  1.000000e-03 
  0.00000000  0.90000000  0.10000000  1.000000e-03 
  0.00000000  0.90000000  0.20000000  1.000000e-03 
  0.00000000  0.90000000  0.30000000  1.000000e-03 
  0.00000000  0.90000000  0.40000000  1.000000e-03 
  0.00000000  0.90000000  0.50000000  1.000000e-03 
  0.00000000  0.90000000  0.60000000  1.000000e-03 
  0.00000000  0.90000000  0.70000000  1.000000e-03 
  0.00000000  0.90000000  0.80000000  1.000000e-03 
  0.00000000  0.90000000  0.90000000  1.000000e-03 
  0.10000000  0.00000000  0.00000000  1.000000e-03 
  0.10000000  0.00000000  0.10000000  1.000000e-03 
  0.10000000  0.00000000  0.20000000  1.000000e-03 
  0.10000000  0.00000000  0.30000000  1.000000e-03 
  0.10000000  0.00000000  0.40000000  1.000000e-03 
  0.10000000  0.00000000  0.50000000  1.000000e-03 
  0.10000000  0.00000000  0.60000000  1.000000e-03 
  0.10000000  0.00000000  0.70000000  1.000000e-03 
  0.10000000  0.00000000  0.80000000  1.000000e-03 
  0.10000000  0.00000000  0.90000000  1.000000e-03 
  0.10000000  0.10000000  0.00000000  1.000000e-03 
  0.10000000  0.10000000  0.10000000  1.000000e-03 
  0.10000000  0.10000000  0.20000000  1.000000e-03 
  0.10000000  0.10000000  0.30000000  1.000000e-03 
  0.10000000  0.10000000  0.40000000  1.000000e-03 
  0.10000000  0.10000000  0.50000000  1.000000e-03 
  0.10000000  0.10000000  0.60000000  1.000000e-03 
  0.10000000  0.10000000  0.70000000  1.000000e-03 
  0.10000000  0.10000000  0.80000000  1.000000e-03 
  0.10000000  0.10000000  0.90000000  1.000000e-03 
  0.10000000  0.20000000  0.00000000  1.000000e-03 
  0.10000000  0.20000000  0.10000000  1.000000e-03 
  0.10000000  0.20000000  0.20000000  1.000000e-03 
  0.10000000  0.20000000  0.30000000  1.000000e-03 
  0.10000000  0.20000000  0.40000000  1.000000e-03 
  0.10000000  0.20000000  0.50000000  1.000000e-03 
  0.10000000  0.20000000  0.60000000  1.000000e-03 
  0.10000000  0.20000000  0.70000000  1.000000e-03 
  0.10000000  0.20000000  0.80000000  1.000000e-03 
  0.10000000  0.20000000  0.90000000  1.000000e-03 
  0.10000000  0.30000000  0.00000000  1.000000e-03 
  0.10000000  0.30000000  0.10000000  1.000000e-03 
  0.10000000  0.30000000  0.20000000  1.000000e-03 
  0.10000000  0.30000000  0.30000000  1.000000e-03 
  0.10000000  0.30000000  0.40000000  1.000000e-03 
  0.10000000  0.30000000  0.50000000  1.000000e-03 
  0.10000000  0.30000000  0.60000000  1.000000e-03 
  0.10000000  0.30000000  0.70000000  1.000000e-03 
  0.10000000  0.30000000  0.80000000  1.000000e-03 
  0.10000000  0.30000000  0.90000000  1.000000e-03 
  0.10000000  0.40000000  0.00000000  1.000000e-03 
  0.10000000  0.40000000  0.10000000  1.000000e-03 
  0.10000000  0.40000000  0.20000000  1.000000e-03 
  0.10000000  0.40000000  0.30000000  1.000000e-03 
  0.10000000  0.40000000  0.40000000  1.000000e-03 
  0.10000000  0.40000000  0.50000000  1.000000e-03 
  0.10000000  0.40000000  0.60000000  1.000000e-03 
  0.10000000  0.40000000  0.70000000  1.000000e-03 
  0.10000000  0.40000000  0.80000000  1.000000e-03 
  0.10000000  0.40000000  0.90000000  1.000000e-03 
  0.10000000  0.50000000  0.00000000  1.000000e-03 
  0.10000000  0.50000000  0.10000000  1.000000e-03 
  0.10000000  0.50000000  0.20000000  1.000000e-03 
  0.10000000  0.50000000  0.30000000  1.000000e-03 
  0.10000000  0.50000000  0.40000000  1.000000e-03 
  0.10000000  0.50000000  0.50000000  1.000000e-03 
  0.10000000  0.50000000  0.60000000  1.000000e-03 
  0.10000000  0.50000000  0.70000000  1.000000e-03 
  0.10000000  0.50000000  0.80000000  1.000000e-03 
  0.10000000  0.50000000  0.90000000  1.000000e-03 
  0.10000000  0.60000000  0.00000000  1.000000e-03 
  0.10000000  0.60000000  0.10000000  1.000000e-03 
  0.10000000  0.60000000  0.20000000  1.000000e-03 
  0.10000000  0.60000000  0.30000000  1.000000e-03 
  0.10000000  0.60000000  0.40000000  1.000000e-03 
  0.10000000  0.60000000  0.50000000  1.000000e-03 
  0.10000000  0.60000000  0.60000000  1.000000e-03 
  0.10000000  0.60000000  0.70000000  1.000000e-03 
  0.10000000  0.60000000  0.80000000  1.000000e-03 
  0.10000000  0.60000000  0.90000000  1.000000e-03 
  0.10000000  0.70000000  0.00000000  1.000000e-03 
  0.10000000  0.70000000  0.10000000  1.000000e-03 
  0.10000000  0.70000000  0.20000000  1.000000e-03 
  0.10000000  0.70000000  0.30000000  1.000000e-03 
  0.10000000  0.70000000  0.40000000  1.000000e-03 
  0.10000000  0.70000000  0.50000000  1.000000e-03 
  0.10000000  0.70000000  0.60000000  1.000000e-03 
  0.10000000  0.70000000  0.70000000  1.000000e-03 
  0.10000000  0.70000000  0.80000000  1.000000e-03 
  0.10000000  0.70000000  0.90000000  1.000000e-03 
  0.10000000  0.80000000  0.00000000  1.000000e-03 
  0.10000000  0.80000000  0.10000000  1.000000e-03 
  0.10000000  0.80000000  0.20000000  1.000000e-03 
  0.10000000  0.80000000  0.30000000  1.000000e-03 
  0.10000000  0.80000000  0.40000000  1.000000e-03 
  0.10000000  0.80000000  0.50000000  1.000000e-03 
  0.10000000  0.80000000  0.60000000  1.000000e-03 
  0.10000000  0.80000000  0.70000000  1.000000e-03 
  0.10000000  0.80000000  0.80000000  1.000000e-03 
  0.10000000  0.80000000  0.90000000  1.000000e-03 
  0.10000000  0.90000000  0.00000000  1.000000e-03 
  0.10000000  0.90000000  0.10000000  1.000000e-03 
  0.10000000  0.90000000  0.20000000  1.000000e-03 
  0.10000000  0.90000000  0.30000000  1.000000e-03 
  0.10000000  0.90000000  0.40000000  1.000000e-03 
  0.10000000  0.90000000  0.50000000  1.000000e-03 
  0.10000000  0.90000000  0.60000000  1.000000e-03 
  0.10000000  0.90000000  0.70000000  1.000000e-03 
  0.10000000  0.90000000  0.80000000  1.000000e-03 
  0.10000000  0.90000000  0.90000000  1.000000e-03 
  0.20000000  0.00000000  0.00000000  1.000000e-03 
  0.20000000  0.00000000  0.10000000  1.000000e-03 
  0.20000000  0.00000000  0.20000000  1.000000e-03 
  0.20000000  0.00000000  0.30000000  1.000000e-03 
  0.20000000  0.00000000  0.40000000  1.000000e-03 
  0.20000000  0.00000000  0.50000000  1.000000e-03 
  0.20000000  0.00000000  0.60000000  1.000000e-03 
  0.20000000  0.00000000  0.70000000  1.000000e-03 
  0.20000000  0.00000000  0.80000000  1.000000e-03 
  0.20000000  0.00000000  0.90000000  1.000000e-03 
  0.20000000  0.10000000  0.00000000  1.000000e-03 
  0.20000000  0.10000000  0.10000000  1.000000e-03 
  0.20000000  0.10000000  0.20000000  1.000000e-03 
  0.20000000  0.10000000  0.30000000  1.000000e-03 
  0.20000000  0.10000000  0.40000000  1.000000e-03 
  0.20000000  0.10000000  0.50000000  1.000000e-03 
  0.20000000  0.10000000  0.60000000  1.000000e-03 
  0.20000000  0.10000000  0.70000000  1.000000e-03 
  0.20000000  0.10000000  0.80000000  1.000000e-03 
  0.20000000  0.10000000  0.90000000  1.000000e-03 
  0.20000000  0.20000000  0.00000000  1.000000e-03 
  0.20000000  0.20000000  0.10000000  1.000000e-03 
  0.20000000  0.20000000  0.20000000  1.000000e-03 
  0.20000000  0.20000000  0.30000000  1.000000e-03 
  0.20000000  0.20000000  0.40000000  1.000000e-03 
  0.20000000  0.20000000  0.50000000  1.000000e-03 
  0.20000000  0.20000000  0.60000000  1.000000e-03 
  0.20000000  0.20000000  0.70000000  1.000000e-03 
  0.20000000  0.20000000  0.80000000  1.000000e-03 
  0.20000000  0.20000000  0.90000000  1.000000e-03 
  0.20000000  0.30000000  0.00000000  1.000000e-03 
  0.20000000  0.30000000  0.10000000  1.000000e-03 
  0.20000000  0.30000000  0.20000000  1.000000e-03 
  0.20000000  0.30000000  0.30000000  1.000000e-03 
  0.20000000  0.30000000  0.40000000  1.000000e-03 
  0.20000000  0.30000000  0.50000000  1.000000e-03 
  0.20000000  0.30000000  0.60000000  1.000000e-03 
  0.20000000  0.30000000  0.70000000  1.000000e-03 
  0.20000000  0.30000000  0.80000000  1.000000e-03 
  0.20000000  0.30000000  0.90000000  1.000000e-03 
  0.20000000  0.40000000  0.00000000  1.000000e-03 
  0.20000000  0.40000000  0.10000000  1.000000e-03 
  0.20000000  0.40000000  0.20000000  1.000000e-03 
  0.20000000  0.40000000  0.30000000  1.000000e-03 
  0.20000000  0.40000000  0.40000000  1.000000e-03 
  0.20000000  0.40000000  0.50000000  1.000000e-03 
  0.20000000  0.40000000  0.60000000  1.000000e-03 
  0.20000000  0.40000000  0.70000000  1.000000e-03 
  0.20000000  0.40000000  0.80000000  1.000000e-03 
  0.20000000  0.40000000  0.90000000  1.000000e-03 
  0.20000000  0.50000000  0.00000000  1.000000e-03 
  0.20000000  0.50000000  0.10000000  1.000000e-03 
  0.20000000  0.50000000  0.20000000  1.000000e-03 
  0.20000000  0.50000000  0.30000000  1.000000e-03 
  0.20000000  0.50000000  0.40000000  1.000000e-03 
  0.20000000  0.50000000  0.50000000  1.000000e-03 
  0.20000000  0.50000000  0.60000000  1.000000e-03 
  0.20000000  0.50000000  0.70000000  1.000000e-03 
  0.20000000  0.50000000  0.80000000  1.000000e-03 
  0.20000000  0.50000000  0.90000000  1.000000e-03 
  0.20000000  0.60000000  0.00000000  1.000000e-03 
  0.20000000  0.60000000  0.10000000  1.000000e-03 
  0.20000000  0.60000000  0.20000000  1.000000e-03 
  0.20000000  0.60000000  0.30000000  1.000000e-03 
  0.20000000  0.60000000  0.40000000  1.000000e-03 
  0.20000000  0.60000000  0.50000000  1.000000e-03 
  0.20000000  0.60000000  0.60000000  1.000000e-03 
  0.20000000  0.60000000  0.70000000  1.000000e-03 
  0.20000000  0.60000000  0.80000000  1.000000e-03 
  0.20000000  0.60000000  0.90000000  1.000000e-03 
  0.20000000  0.70000000  0.00000000  1.000000e-03 
  0.20000000  0.70000000  0.10000000  1.000000e-03 
  0.20000000  0.70000000  0.20000000  1.000000e-03 
  0.20000000  0.70000000  0.30000000  1.000000e-03 
  0.20000000  0.70000000  0.40000000  1.000000e-03 
  0.20000000  0.70000000  0.50000000  1.000000e-03 
  0.20000000  0.70000000  0.60000000  1.000000e-03 
  0.20000000  0.70000000  0.70000000  1.000000e-03 
  0.20000000  0.70000000  0.80000000  1.000000e-03 
  0.20000000  0.70000000  0.90000000  1.000000e-03 
  0.20000000  0.80000000  0.00000000  1.000000e-03 
  0.20000000  0.80000000  0.10000000  1.000000e-03 
  0.20000000  0.80000000  0.20000000  1.000000e-03 
  0.20000000  0.80000000  0.30000000  1.000000e-03 
  0.20000000  0.80000000  0.40000000  1.000000e-03 
  0.20000000  0.80000000  0.50000000  1.000000e-03 
  0.20000000  0.80000000  0.60000000  1.000000e-03 
  0.20000000  0.80000000  0.70000000  1.000000e-03 
  0.20000000  0.80000000  0.80000000  1.000000e-03 
  0.20000000  0.80000000  0.90000000  1.000000e-03 
  0.20000000  0.90000000  0.00000000  1.000000e-03 
  0.20000000  0.90000000  0.10000000  1.000000e-03 
  0.20000000  0.90000000  0.20000000  1.000000e-03 
  0.20000000  0.90000000  0.30000000  1.000000e-03 
  0.20000000  0.90000000  0.40000000  1.000000e-03 
  0.20000000  0.90000000  0.50000000  1.000000e-03 
  0.20000000  0.90000000  0.60000000  1.000000e-03 
  0.20000000  0.90000000  0.70000000  1.000000e-03 
  0.20000000  0.90000000  0.80000000  1.000000e-03 
  0.20000000  0.90000000  0.90000000  1.000000e-03 
  0.30000000  0.00000000  0.00000000  1.000000e-03 
  0.30000000  0.00000000  0.10000000  1.000000e-03 
  0.30000000  0.00000000  0.20000000  1.000000e-03 
  0.30000000  0.00000000  0.30000000  1.000000e-03 
  0.30000000  0.00000000  0.40000000  1.000000e-03 
  0.30000000  0.00000000  0.50000000  1.000000e-03 
  0.30000000  0.00000000  0.60000000  1.000000e-03 
  0.30000000  0.00000000  0.70000000  1.000000e-03 
  0.30000000  0.00000000  0.80000000  1.000000e-03 
  0.30000000  0.00000000  0.90000000  1.000000e-03 
  0.30000000  0.10000000  0.00000000  1.000000e-03 
  0.30000000  0.10000000  0.10000000  1.000000e-03 
  0.30000000  0.10000000  0.20000000  1.000000e-03 
  0.30000000  0.10000000  0.30000000  1.000000e-03 
  0.30000000  0.10000000  0.40000000  1.000000e-03 
  0.30000000  0.10000000  0.50000000  1.000000e-03 
  0.30000000  0.10000000  0.60000000  1.000000e-03 
  0.30000000  0.10000000  0.70000000  1.000000e-03 
  0.30000000  0.10000000  0.80000000  1.000000e-03 
  0.30000000  0.10000000  0.90000000  1.000000e-03 
  0.30000000  0.20000000  0.00000000  1.000000e-03 
  0.30000000  0.20000000  0.10000000  1.000000e-03 
  0.30000000  0.20000000  0.20000000  1.000000e-03 
  0.30000000  0.20000000  0.30000000  1.000000e-03 
  0.30000000  0.20000000  0.40000000  1.000000e-03 
  0.30000000  0.20000000  0.50000000  1.000000e-03 
  0.30000000  0.20000000  0.60000000  1.000000e-03 
  0.30000000  0.20000000  0.70000000  1.000000e-03 
  0.30000000  0.20000000  0.80000000  1.000000e-03 
  0.30000000  0.20000000  0.90000000  1.000000e-03 
  0.30000000  0.30000000  0.00000000  1.000000e-03 
  0.30000000  0.30000000  0.10000000  1.000000e-03 
  0.30000000  0.30000000  0.20000000  1.000000e-03 
  0.30000000  0.30000000  0.30000000  1.000000e-03 
  0.30000000  0.30000000  0.40000000  1.000000e-03 
  0.30000000  0.30000000  0.50000000  1.000000e-03 
  0.30000000  0.30000000  0.60000000  1.000000e-03 
  0.30000000  0.30000000  0.70000000  1.000000e-03 
  0.30000000  0.30000000  0.80000000  1.000000e-03 
  0.30000000  0.30000000  0.90000000  1.000000e-03 
  0.30000000  0.40000000  0.00000000  1.000000e-03 
  0.30000000  0.40000000  0.10000000  1.000000e-03 
  0.30000000  0.40000000  0.20000000  1.000000e-03 
  0.30000000  0.40000000  0.30000000  1.000000e-03 
  0.30000000  0.40000000  0.40000000  1.000000e-03 
  0.30000000  0.40000000  0.50000000  1.000000e-03 
  0.30000000  0.40000000  0.60000000  1.000000e-03 
  0.30000000  0.40000000  0.70000000  1.000000e-03 
  0.30000000  0.40000000  0.80000000  1.000000e-03 
  0.30000000  0.40000000  0.90000000  1.000000e-03 
  0.30000000  0.50000000  0.00000000  1.000000e-03 
  0.30000000  0.50000000  0.10000000  1.000000e-03 
  0.30000000  0.50000000  0.20000000  1.000000e-03 
  0.30000000  0.50000000  0.30000000  1.000000e-03 
  0.30000000  0.50000000  0.40000000  1.000000e-03 
  0.30000000  0.50000000  0.50000000  1.000000e-03 
  0.30000000  0.50000000  0.60000000  1.000000e-03 
  0.30000000  0.50000000  0.70000000  1.000000e-03 
  0.30000000  0.50000000  0.80000000  1.000000e-03 
  0.30000000  0.50000000  0.90000000  1.000000e-03 
  0.30000000  0.60000000  0.00000000  1.000000e-03 
  0.30000000  0.60000000  0.10000000  1.000000e-03 
  0.30000000  0.60000000  0.20000000  1.000000e-03 
  0.30000000  0.60000000  0.30000000  1.000000e-03 
  0.30000000  0.60000000  0.40000000  1.000000e-03 
  0.30000000  0.60000000  0.50000000  1.000000e-03 
  0.30000000  0.60000000  0.60000000  1.000000e-03 
  0.30000000  0.60000000  0.70000000  1.000000e-03 
  0.30000000  0.60000000  0.80000000  1.000000e-03 
  0.30000000  0.60000000  0.90000000  1.000000e-03 
  0.30000000  0.70000000  0.00000000  1.000000e-03 
  0.30000000  0.70000000  0.10000000  1.000000e-03 
  0.30000000  0.70000000  0.20000000  1.000000e-03 
  0.30000000  0.70000000  0.30000000  1.000000e-03 
  0.30000000  0.70000000  0.40000000  1.000000e-03 
  0.30000000  0.70000000  0.50000000  1.000000e-03 
  0.30000000  0.70000000  0.60000000  1.000000e-03 
  0.30000000  0.70000000  0.70000000  1.000000e-03 
  0.30000000  0.70000000  0.80000000  1.000000e-03 
  0.30000000  0.70000000  0.90000000  1.000000e-03 
  0.30000000  0.80000000  0.00000000  1.000000e-03 
  0.30000000  0.80000000  0.10000000  1.000000e-03 
  0.30000000  0.80000000  0.20000000  1.000000e-03 
  0.30000000  0.80000000  0.30000000  1.000000e-03 
  0.30000000  0.80000000  0.40000000  1.000000e-03 
  0.30000000  0.80000000  0.50000000  1.000000e-03 
  0.30000000  0.80000000  0.60000000  1.000000e-03 
  0.30000000  0.80000000  0.70000000  1.000000e-03 
  0.30000000  0.80000000  0.80000000  1.000000e-03 
  0.30000000  0.80000000  0.90000000  1.000000e-03 
  0.30000000  0.90000000  0.00000000  1.000000e-03 
  0.30000000  0.90000000  0.10000000  1.000000e-03 
  0.30000000  0.90000000  0.20000000  1.000000e-03 
  0.30000000  0.90000000  0.30000000  1.000000e-03 
  0.30000000  0.90000000  0.40000000  1.000000e-03 
  0.30000000  0.90000000  0.50000000  1.000000e-03 
  0.30000000  0.90000000  0.60000000  1.000000e-03 
  0.30000000  0.90000000  0.70000000  1.000000e-03 
  0.30000000  0.90000000  0.80000000  1.000000e-03 
  0.30000000  0.90000000  0.90000000  1.000000e-03 
  0.40000000  0.00000000  0.00000000  1.000000e-03 
  0.40000000  0.00000000  0.10000000  1.000000e-03 
  0.40000000  0.00000000  0.20000000  1.000000e-03 
  0.40000000  0.00000000  0.30000000  1.000000e-03 
  0.40000000  0.00000000  0.40000000  1.000000e-03 
  0.40000000  0.00000000  0.50000000  1.000000e-03 
  0.40000000  0.00000000  0.60000000  1.000000e-03 
  0.40000000  0.00000000  0.70000000  1.000000e-03 
  0.40000000  0.00000000  0.80000000  1.000000e-03 
  0.40000000  0.00000000  0.90000000  1.000000e-03 
  0.40000000  0.10000000  0.00000000  1.000000e-03 
  0.40000000  0.10000000  0.10000000  1.000000e-03 
  0.40000000  0.10000000  0.20000000  1.000000e-03 
  0.40000000  0.10000000  0.30000000  1.000000e-03 
  0.40000000  0.10000000  0.40000000  1.000000e-03 
  0.40000000  0.10000000  0.50000000  1.000000e-03 
  0.40000000  0.10000000  0.60000000  1.000000e-03 
  0.40000000  0.10000000  0.70000000  1.000000e-03 
  0.40000000  0.10000000  0.80000000  1.000000e-03 
  0.40000000  0.10000000  0.90000000  1.000000e-03 
  0.40000000  0.20000000  0.00000000  1.000000e-03 
  0.40000000  0.20000000  0.10000000  1.000000e-03 
  0.40000000  0.20000000  0.20000000  1.000000e-03 
  0.40000000  0.20000000  0.30000000  1.000000e-03 
  0.40000000  0.20000000  0.40000000  1.000000e-03 
  0.40000000  0.20000000  0.50000000  1.000000e-03 
  0.40000000  0.20000000  0.60000000  1.000000e-03 
  0.40000000  0.20000000  0.70000000  1.000000e-03 
  0.40000000  0.20000000  0.80000000  1.000000e-03 
  0.40000000  0.20000000  0.90000000  1.000000e-03 
  0.40000000  0.30000000  0.00000000  1.000000e-03 
  0.40000000  0.30000000  0.10000000  1.000000e-03 
  0.40000000  0.30000000  0.20000000  1.000000e-03 
  0.40000000  0.30000000  0.30000000  1.000000e-03 
  0.40000000  0.30000000  0.40000000  1.000000e-03 
  0.40000000  0.30000000  0.50000000  1.000000e-03 
  0.40000000  0.30000000  0.60000000  1.000000e-03 
  0.40000000  0.30000000  0.70000000  1.000000e-03 
  0.40000000  0.30000000  0.80000000  1.000000e-03 
  0.40000000  0.30000000  0.90000000  1.000000e-03 
  0.40000000  0.40000000  0.00000000  1.000000e-03 
  0.40000000  0.40000000  0.10000000  1.000000e-03 
  0.40000000  0.40000000  0.20000000  1.000000e-03 
  0.40000000  0.40000000  0.30000000  1.000000e-03 
  0.40000000  0.40000000  0.40000000  1.000000e-03 
  0.40000000  0.40000000  0.50000000  1.000000e-03 
  0.40000000  0.40000000  0.60000000  1.000000e-03 
  0.40000000  0.40000000  0.70000000  1.000000e-03 
  0.40000000  0.40000000  0.80000000  1.000000e-03 
  0.40000000  0.40000000  0.90000000  1.000000e-03 
  0.40000000  0.50000000  0.00000000  1.000000e-03 
  0.40000000  0.50000000  0.10000000  1.000000e-03 
  0.40000000  0.50000000  0.20000000  1.000000e-03 
  0.40000000  0.50000000  0.30000000  1.000000e-03 
  0.40000000  0.50000000  0.40000000  1.000000e-03 
  0.40000000  0.50000000  0.50000000  1.000000e-03 
  0.40000000  0.50000000  0.60000000  1.000000e-03 
  0.40000000  0.50000000  0.70000000  1.000000e-03 
  0.40000000  0.50000000  0.80000000  1.000000e-03 
  0.40000000  0.50000000  0.90000000  1.000000e-03 
  0.40000000  0.60000000  0.00000000  1.000000e-03 
  0.40000000  0.60000000  0.10000000  1.000000e-03 
  0.40000000  0.60000000  0.20000000  1.000000e-03 
  0.40000000  0.60000000  0.30000000  1.000000e-03 
  0.40000000  0.60000000  0.40000000  1.000000e-03 
  0.40000000  0.60000000  0.50000000  1.000000e-03 
  0.40000000  0.60000000  0.60000000  1.000000e-03 
  0.40000000  0.60000000  0.70000000  1.000000e-03 
  0.40000000  0.60000000  0.80000000  1.000000e-03 
  0.40000000  0.60000000  0.90000000  1.000000e-03 
  0.40000000  0.70000000  0.00000000  1.000000e-03 
  0.40000000  0.70000000  0.10000000  1.000000e-03 
  0.40000000  0.70000000  0.20000000  1.000000e-03 
  0.40000000  0.70000000  0.30000000  1.000000e-03 
  0.40000000  0.70000000  0.40000000  1.000000e-03 
  0.40000000  0.70000000  0.50000000  1.000000e-03 
  0.40000000  0.70000000  0.60000000  1.000000e-03 
  0.40000000  0.70000000  0.70000000  1.000000e-03 
  0.40000000  0.70000000  0.80000000  1.000000e-03 
  0.40000000  0.70000000  0.90000000  1.000000e-03 
  0.40000000  0.80000000  0.00000000  1.000000e-03 
  0.40000000  0.80000000  0.10000000  1.000000e-03 
  0.40000000  0.80000000  0.20000000  1.000000e-03 
  0.40000000  0.80000000  0.30000000  1.000000e-03 
  0.40000000  0.80000000  0.40000000  1.000000e-03 
  0.40000000  0.80000000  0.50000000  1.000000e-03 
  0.40000000  0.80000000  0.60000000  1.000000e-03 
  0.40000000  0.80000000  0.70000000  1.000000e-03 
  0.40000000  0.80000000  0.80000000  1.000000e-03 
  0.40000000  0.80000000  0.90000000  1.000000e-03 
  0.40000000  0.90000000  0.00000000  1.000000e-03 
  0.40000000  0.90000000  0.10000000  1.000000e-03 
  0.40000000  0.90000000  0.20000000  1.000000e-03 
  0.40000000  0.90000000  0.30000000  1.000000e-03 
  0.40000000  0.90000000  0.40000000  1.000000e-03 
  0.40000000  0.90000000  0.50000000  1.000000e-03 
  0.40000000  0.90000000  0.60000000  1.000000e-03 
  0.40000000  0.90000000  0.70000000  1.000000e-03 
  0.40000000  0.90000000  0.80000000  1.000000e-03 
  0.40000000  0.90000000  0.90000000  1.000000e-03 
  0.50000000  0.00000000  0.00000000  1.000000e-03 
  0.50000000  0.00000000  0.10000000  1.000000e-03 
  0.50000000  0.00000000  0.20000000  1.000000e-03 
  0.50000000  0.00000000  0.30000000  1.000000e-03 
  0.50000000  0.00000000  0.40000000  1.000000e-03 
  0.50000000  0.00000000  0.50000000  1.000000e-03 
  0.50000000  0.00000000  0.60000000  1.000000e-03 
  0.50000000  0.00000000  0.70000000  1.000000e-03 
  0.50000000  0.00000000  0.80000000  1.000000e-03 
  0.50000000  0.00000000  0.90000000  1.000000e-03 
  0.50000000  0.10000000  0.00000000  1.000000e-03 
  0.50000000  0.10000000  0.10000000  1.000000e-03 
  0.50000000  0.10000000  0.20000000  1.000000e-03 
  0.50000000  0.10000000  0.30000000  1.000000e-03 
  0.50000000  0.10000000  0.40000000  1.000000e-03 
  0.50000000  0.10000000  0.50000000  1.000000e-03 
  0.50000000  0.10000000  0.60000000  1.000000e-03 
  0.50000000  0.10000000  0.70000000  1.000000e-03 
  0.50000000  0.10000000  0.80000000  1.000000e-03 
  0.50000000  0.10000000  0.90000000  1.000000e-03 
  0.50000000  0.20000000  0.00000000  1.000000e-03 
  0.50000000  0.20000000  0.10000000  1.000000e-03 
  0.50000000  0.20000000  0.20000000  1.000000e-03 
  0.50000000  0.20000000  0.30000000  1.000000e-03 
  0.50000000  0.20000000  0.40000000  1.000000e-03 
  0.50000000  0.20000000  0.50000000  1.000000e-03 
  0.50000000  0.20000000  0.60000000  1.000000e-03 
  0.50000000  0.20000000  0.70000000  1.000000e-03 
  0.50000000  0.20000000  0.80000000  1.000000e-03 
  0.50000000  0.20000000  0.90000000  1.000000e-03 
  0.50000000  0.30000000  0.00000000  1.000000e-03 
  0.50000000  0.30000000  0.10000000  1.000000e-03 
  0.50000000  0.30000000  0.20000000  1.000000e-03 
  0.50000000  0.30000000  0.30000000  1.000000e-03 
  0.50000000  0.30000000  0.40000000  1.000000e-03 
  0.50000000  0.30000000  0.50000000  1.000000e-03 
  0.50000000  0.30000000  0.60000000  1.000000e-03 
  0.50000000  0.30000000  0.70000000  1.000000e-03 
  0.50000000  0.30000000  0.80000000  1.000000e-03 
  0.50000000  0.30000000  0.90000000  1.000000e-03 
  0.50000000  0.40000000  0.00000000  1.000000e-03 
  0.50000000  0.40000000  0.10000000  1.000000e-03 
  0.50000000  0.40000000  0.20000000  1.000000e-03 
  0.50000000  0.40000000  0.30000000  1.000000e-03 
  0.50000000  0.40000000  0.40000000  1.000000e-03 
  0.50000000  0.40000000  0.50000000  1.000000e-03 
  0.50000000  0.40000000  0.60000000  1.000000e-03 
  0.50000000  0.40000000  0.70000000  1.000000e-03 
  0.50000000  0.40000000  0.80000000  1.000000e-03 
  0.50000000  0.40000000  0.90000000  1.000000e-03 
  0.50000000  0.50000000  0.00000000  1.000000e-03 
  0.50000000  0.50000000  0.10000000  1.000000e-03 
  0.50000000  0.50000000  0.20000000  1.000000e-03 
  0.50000000  0.50000000  0.30000000  1.000000e-03 
  0.50000000  0.50000000  0.40000000  1.000000e-03 
  0.50000000  0.50000000  0.50000000  1.000000e-03 
  0.50000000  0.50000000  0.60000000  1.000000e-03 
  0.50000000  0.50000000  0.70000000  1.000000e-03 
  0.50000000  0.50000000  0.80000000  1.000000e-03 
  0.50000000  0.50000000  0.90000000  1.000000e-03 
  0.50000000  0.60000000  0.00000000  1.000000e-03 
  0.50000000  0.60000000  0.10000000  1.000000e-03 
  0.50000000  0.60000000  0.20000000  1.000000e-03 
  0.50000000  0.60000000  0.30000000  1.000000e-03 