&projwfc
    prefix = 'W',
    outdir = './out',
    lsym = .FALSE.,
    filproj = 'W-proj'
 /
