
num_bands         =   29
num_wann          =   4

num_iter          = 10000
num_print_cycles  = 40

dis_froz_max      =  0.80d0
dis_froz_min      = -5.0d0
dis_num_iter      =  10200
dis_mix_ratio     =  0.5d0

dis_conv_tol = 1E-9

search_shells = 30

#restart = plot

bands_plot : true
bands_num_points : 151
bands_plot_format : gnuplot

exclude_bands : 1, 31-40

################
### POSTW90 ####
berry = true
berry_task = kdotp


kdotp_kpoint  =  0.5000 0.0000 0.5000
kdotp_num_bands = 2
kdotp_bands =  2,3
berry_kmesh = 1 1 1
fermi_energy = 54.10400040
################



begin unit_cell_cart
   2.466         0.000000000   0.000000000
   0.000000000   20.00         0.000000000
   0.000000000   0.000000000   4.323
end unit_cell_cart


begin atoms_cart
B        1.2330000   0.0000000   1.1830592
C        1.2330000   0.0000000   2.6963492
C        0.0000000   0.0000000   3.3885933
N        0.0000000   0.0000000   4.7677273
end atoms_cart

mp_grid = 10 1 10


#reciprocal lattice units
begin kpoint_path
S 0.50000      0.00000      0.50000 X 0.50000      0.00000      0.00000
end kpoint_path


Begin Projections
C:py
B:py
N:py
end projections




begin kpoints
0.0 0.0 0.0
0.0 0.0 0.1
0.0 0.0 0.2
0.0 0.0 0.3
0.0 0.0 0.4
0.0 0.0 0.5
0.0 0.0 0.6
0.0 0.0 0.7
0.0 0.0 0.8
0.0 0.0 0.9
0.1 0.0 0.0
0.1 0.0 0.1
0.1 0.0 0.2
0.1 0.0 0.3
0.1 0.0 0.4
0.1 0.0 0.5
0.1 0.0 0.6
0.1 0.0 0.7
0.1 0.0 0.8
0.1 0.0 0.9
0.2 0.0 0.0
0.2 0.0 0.1
0.2 0.0 0.2
0.2 0.0 0.3
0.2 0.0 0.4
0.2 0.0 0.5
0.2 0.0 0.6
0.2 0.0 0.7
0.2 0.0 0.8
0.2 0.0 0.9
0.3 0.0 0.0
0.3 0.0 0.1
0.3 0.0 0.2
0.3 0.0 0.3
0.3 0.0 0.4
0.3 0.0 0.5
0.3 0.0 0.6
0.3 0.0 0.7
0.3 0.0 0.8
0.3 0.0 0.9
0.4 0.0 0.0
0.4 0.0 0.1
0.4 0.0 0.2
0.4 0.0 0.3
0.4 0.0 0.4
0.4 0.0 0.5
0.4 0.0 0.6
0.4 0.0 0.7
0.4 0.0 0.8
0.4 0.0 0.9
0.5 0.0 0.0
0.5 0.0 0.1
0.5 0.0 0.2
0.5 0.0 0.3
0.5 0.0 0.4
0.5 0.0 0.5
0.5 0.0 0.6
0.5 0.0 0.7
0.5 0.0 0.8
0.5 0.0 0.9
0.6 0.0 0.0
0.6 0.0 0.1
0.6 0.0 0.2
0.6 0.0 0.3
0.6 0.0 0.4
0.6 0.0 0.5
0.6 0.0 0.6
0.6 0.0 0.7
0.6 0.0 0.8
0.6 0.0 0.9
0.7 0.0 0.0
0.7 0.0 0.1
0.7 0.0 0.2
0.7 0.0 0.3
0.7 0.0 0.4
0.7 0.0 0.5
0.7 0.0 0.6
0.7 0.0 0.7
0.7 0.0 0.8
0.7 0.0 0.9
0.8 0.0 0.0
0.8 0.0 0.1
0.8 0.0 0.2
0.8 0.0 0.3
0.8 0.0 0.4
0.8 0.0 0.5
0.8 0.0 0.6
0.8 0.0 0.7
0.8 0.0 0.8
0.8 0.0 0.9
0.9 0.0 0.0
0.9 0.0 0.1
0.9 0.0 0.2
0.9 0.0 0.3
0.9 0.0 0.4
0.9 0.0 0.5
0.9 0.0 0.6
0.9 0.0 0.7
0.9 0.0 0.8
0.9 0.0 0.9
end kpoints
