num_bands         =     4
num_wann          =     4
conv_tol          = 1E-9
conv_window       = 3
num_iter          = 10000

exclude_bands     = 1-5,10-18

! Perform selective localization, add appropriate keywords for constraining the centres
slwf_num = 1

begin projections
f= 0.125, 0.125, 0.125: s
f= 0.125, 0.125, -.375: s
f= -.375, 0.125, 0.125: s
f= 0.125, -.375, 0.125: s
end projections

! Block for the constrained center
! begin slwf_centres
! 1 0.25 0.25 0.25
! end slwf_centres

begin unit_cell_cart
bohr
-5.34 0.00 5.34
 0.00 5.34 5.34
-5.34 5.34 0.00
end unit_cell_cart

begin atoms_frac
Ga 0.00  0.00  0.00
As 0.25  0.25  0.25
end atoms_frac

bands_plot = .true.
begin kpoint_path
L   0.50000     0.50000     0.50000   G   0.00000     0.00000     0.00000
G   0.00000     0.00000     0.00000   X   0.50000     0.00000     0.50000
X   0.50000     0.00000     0.50000   W   0.50000     0.25000     0.75000
W   0.50000     0.25000     0.75000   L   0.50000     0.50000     0.50000
L   0.50000     0.50000     0.50000   K   0.75000     0.37500     0.37500
K   0.75000     0.37500     0.37500   G   0.00000     0.00000     0.00000
end kpoint_path

! To plot the WFs
! restart                =  plot
wannier_plot             =  true
wannier_plot_supercell   =  3

mp_grid           = 4 4 4

begin kpoints
0	0	0	0.015625
0.25	0	0	0.015625
0.5	0	0	0.015625
0.75	0	0	0.015625
0	0.25	0	0.015625
0.25	0.25	0	0.015625
0.5	0.25	0	0.015625
0.75	0.25	0	0.015625
0	0.5	0	0.015625
0.25	0.5	0	0.015625
0.5	0.5	0	0.015625
0.75	0.5	0	0.015625
0	0.75	0	0.015625
0.25	0.75	0	0.015625
0.5	0.75	0	0.015625
0.75	0.75	0	0.015625
0	0	0.25	0.015625
0.25	0	0.25	0.015625
0.5	0	0.25	0.015625
0.75	0	0.25	0.015625
0	0.25	0.25	0.015625
0.25	0.25	0.25	0.015625
0.5	0.25	0.25	0.015625
0.75	0.25	0.25	0.015625
0	0.5	0.25	0.015625
0.25	0.5	0.25	0.015625
0.5	0.5	0.25	0.015625
0.75	0.5	0.25	0.015625
0	0.75	0.25	0.015625
0.25	0.75	0.25	0.015625
0.5	0.75	0.25	0.015625
0.75	0.75	0.25	0.015625
0	0	0.5	0.015625
0.25	0	0.5	0.015625
0.5	0	0.5	0.015625
0.75	0	0.5	0.015625
0	0.25	0.5	0.015625
0.25	0.25	0.5	0.015625
0.5	0.25	0.5	0.015625
0.75	0.25	0.5	0.015625
0	0.5	0.5	0.015625
0.25	0.5	0.5	0.015625
0.5	0.5	0.5	0.015625
0.75	0.5	0.5	0.015625
0	0.75	0.5	0.015625
0.25	0.75	0.5	0.015625
0.5	0.75	0.5	0.015625
0.75	0.75	0.5	0.015625
0	0	0.75	0.015625
0.25	0	0.75	0.015625
0.5	0	0.75	0.015625
0.75	0	0.75	0.015625
0	0.25	0.75	0.015625
0.25	0.25	0.75	0.015625
0.5	0.25	0.75	0.015625
0.75	0.25	0.75	0.015625
0	0.5	0.75	0.015625
0.25	0.5	0.75	0.015625
0.5	0.5	0.75	0.015625
0.75	0.5	0.75	0.015625
0	0.75	0.75	0.015625
0.25	0.75	0.75	0.015625
0.5	0.75	0.75	0.015625
0.75	0.75	0.75	0.015625
end kpoints
