 &CONTROL
                 calculation = 'nscf'
                restart_mode = 'restart'
                      outdir = './tempdir/'
                  pseudo_dir = '../../pseudo/'
                      prefix = 'Pt'
                  wf_collect = .true.
                   verbosity = 'high'
 /
 &SYSTEM
                       ibrav = 2
                           a = 3.92
                         nat = 1
                        ntyp = 1
                        nbnd = 40
                     ecutwfc = 90
                     ecutrho = 1080
                 occupations = 'smearing'
                    smearing = 'mv'
                     degauss = 0.002
                    noncolin = .true.
                    lspinorb = .true.
                       nosym = .true.
 /
 &ELECTRONS
                    conv_thr = 1.0D-8
 /

ATOMIC_SPECIES
   Pt    195.07800  Pt.rel-pbe-n-kjpaw_psl.0.1.UPF

ATOMIC_POSITIONS {bohr}
Pt      0.0000000   0.0000000   0.0000000

K_POINTS crystal
343
  0.00000000  0.00000000  0.00000000  2.915452e-03 
  0.00000000  0.00000000  0.14285714  2.915452e-03 
  0.00000000  0.00000000  0.28571429  2.915452e-03 
  0.00000000  0.00000000  0.42857143  2.915452e-03 
  0.00000000  0.00000000  0.57142857  2.915452e-03 
  0.00000000  0.00000000  0.71428571  2.915452e-03 
  0.00000000  0.00000000  0.85714286  2.915452e-03 
  0.00000000  0.14285714  0.00000000  2.915452e-03 
  0.00000000  0.14285714  0.14285714  2.915452e-03 
  0.00000000  0.14285714  0.28571429  2.915452e-03 
  0.00000000  0.14285714  0.42857143  2.915452e-03 
  0.00000000  0.14285714  0.57142857  2.915452e-03 
  0.00000000  0.14285714  0.71428571  2.915452e-03 
  0.00000000  0.14285714  0.85714286  2.915452e-03 
  0.00000000  0.28571429  0.00000000  2.915452e-03 
  0.00000000  0.28571429  0.14285714  2.915452e-03 
  0.00000000  0.28571429  0.28571429  2.915452e-03 
  0.00000000  0.28571429  0.42857143  2.915452e-03 
  0.00000000  0.28571429  0.57142857  2.915452e-03 
  0.00000000  0.28571429  0.71428571  2.915452e-03 
  0.00000000  0.28571429  0.85714286  2.915452e-03 
  0.00000000  0.42857143  0.00000000  2.915452e-03 
  0.00000000  0.42857143  0.14285714  2.915452e-03 
  0.00000000  0.42857143  0.28571429  2.915452e-03 
  0.00000000  0.42857143  0.42857143  2.915452e-03 
  0.00000000  0.42857143  0.57142857  2.915452e-03 
  0.00000000  0.42857143  0.71428571  2.915452e-03 
  0.00000000  0.42857143  0.85714286  2.915452e-03 
  0.00000000  0.57142857  0.00000000  2.915452e-03 
  0.00000000  0.57142857  0.14285714  2.915452e-03 
  0.00000000  0.57142857  0.28571429  2.915452e-03 
  0.00000000  0.57142857  0.42857143  2.915452e-03 
  0.00000000  0.57142857  0.57142857  2.915452e-03 
  0.00000000  0.57142857  0.71428571  2.915452e-03 
  0.00000000  0.57142857  0.85714286  2.915452e-03 
  0.00000000  0.71428571  0.00000000  2.915452e-03 
  0.00000000  0.71428571  0.14285714  2.915452e-03 
  0.00000000  0.71428571  0.28571429  2.915452e-03 
  0.00000000  0.71428571  0.42857143  2.915452e-03 
  0.00000000  0.71428571  0.57142857  2.915452e-03 
  0.00000000  0.71428571  0.71428571  2.915452e-03 
  0.00000000  0.71428571  0.85714286  2.915452e-03 
  0.00000000  0.85714286  0.00000000  2.915452e-03 
  0.00000000  0.85714286  0.14285714  2.915452e-03 
  0.00000000  0.85714286  0.28571429  2.915452e-03 
  0.00000000  0.85714286  0.42857143  2.915452e-03 
  0.00000000  0.85714286  0.57142857  2.915452e-03 
  0.00000000  0.85714286  0.71428571  2.915452e-03 
  0.00000000  0.85714286  0.85714286  2.915452e-03 
  0.14285714  0.00000000  0.00000000  2.915452e-03 
  0.14285714  0.00000000  0.14285714  2.915452e-03 
  0.14285714  0.00000000  0.28571429  2.915452e-03 
  0.14285714  0.00000000  0.42857143  2.915452e-03 
  0.14285714  0.00000000  0.57142857  2.915452e-03 
  0.14285714  0.00000000  0.71428571  2.915452e-03 
  0.14285714  0.00000000  0.85714286  2.915452e-03 
  0.14285714  0.14285714  0.00000000  2.915452e-03 
  0.14285714  0.14285714  0.14285714  2.915452e-03 
  0.14285714  0.14285714  0.28571429  2.915452e-03 
  0.14285714  0.14285714  0.42857143  2.915452e-03 
  0.14285714  0.14285714  0.57142857  2.915452e-03 
  0.14285714  0.14285714  0.71428571  2.915452e-03 
  0.14285714  0.14285714  0.85714286  2.915452e-03 
  0.14285714  0.28571429  0.00000000  2.915452e-03 
  0.14285714  0.28571429  0.14285714  2.915452e-03 
  0.14285714  0.28571429  0.28571429  2.915452e-03 
  0.14285714  0.28571429  0.42857143  2.915452e-03 
  0.14285714  0.28571429  0.57142857  2.915452e-03 
  0.14285714  0.28571429  0.71428571  2.915452e-03 
  0.14285714  0.28571429  0.85714286  2.915452e-03 
  0.14285714  0.42857143  0.00000000  2.915452e-03 
  0.14285714  0.42857143  0.14285714  2.915452e-03 
  0.14285714  0.42857143  0.28571429  2.915452e-03 
  0.14285714  0.42857143  0.42857143  2.915452e-03 
  0.14285714  0.42857143  0.57142857  2.915452e-03 
  0.14285714  0.42857143  0.71428571  2.915452e-03 
  0.14285714  0.42857143  0.85714286  2.915452e-03 
  0.14285714  0.57142857  0.00000000  2.915452e-03 
  0.14285714  0.57142857  0.14285714  2.915452e-03 
  0.14285714  0.57142857  0.28571429  2.915452e-03 
  0.14285714  0.57142857  0.42857143  2.915452e-03 
  0.14285714  0.57142857  0.57142857  2.915452e-03 
  0.14285714  0.57142857  0.71428571  2.915452e-03 
  0.14285714  0.57142857  0.85714286  2.915452e-03 
  0.14285714  0.71428571  0.00000000  2.915452e-03 
  0.14285714  0.71428571  0.14285714  2.915452e-03 
  0.14285714  0.71428571  0.28571429  2.915452e-03 
  0.14285714  0.71428571  0.42857143  2.915452e-03 
  0.14285714  0.71428571  0.57142857  2.915452e-03 
  0.14285714  0.71428571  0.71428571  2.915452e-03 
  0.14285714  0.71428571  0.85714286  2.915452e-03 
  0.14285714  0.85714286  0.00000000  2.915452e-03 
  0.14285714  0.85714286  0.14285714  2.915452e-03 
  0.14285714  0.85714286  0.28571429  2.915452e-03 
  0.14285714  0.85714286  0.42857143  2.915452e-03 
  0.14285714  0.85714286  0.57142857  2.915452e-03 
  0.14285714  0.85714286  0.71428571  2.915452e-03 
  0.14285714  0.85714286  0.85714286  2.915452e-03 
  0.28571429  0.00000000  0.00000000  2.915452e-03 
  0.28571429  0.00000000  0.14285714  2.915452e-03 
  0.28571429  0.00000000  0.28571429  2.915452e-03 
  0.28571429  0.00000000  0.42857143  2.915452e-03 
  0.28571429  0.00000000  0.57142857  2.915452e-03 
  0.28571429  0.00000000  0.71428571  2.915452e-03 
  0.28571429  0.00000000  0.85714286  2.915452e-03 
  0.28571429  0.14285714  0.00000000  2.915452e-03 
  0.28571429  0.14285714  0.14285714  2.915452e-03 
  0.28571429  0.14285714  0.28571429  2.915452e-03 
  0.28571429  0.14285714  0.42857143  2.915452e-03 
  0.28571429  0.14285714  0.57142857  2.915452e-03 
  0.28571429  0.14285714  0.71428571  2.915452e-03 
  0.28571429  0.14285714  0.85714286  2.915452e-03 
  0.28571429  0.28571429  0.00000000  2.915452e-03 
  0.28571429  0.28571429  0.14285714  2.915452e-03 
  0.28571429  0.28571429  0.28571429  2.915452e-03 
  0.28571429  0.28571429  0.42857143  2.915452e-03 
  0.28571429  0.28571429  0.57142857  2.915452e-03 
  0.28571429  0.28571429  0.71428571  2.915452e-03 
  0.28571429  0.28571429  0.85714286  2.915452e-03 
  0.28571429  0.42857143  0.00000000  2.915452e-03 
  0.28571429  0.42857143  0.14285714  2.915452e-03 
  0.28571429  0.42857143  0.28571429  2.915452e-03 
  0.28571429  0.42857143  0.42857143  2.915452e-03 
  0.28571429  0.42857143  0.57142857  2.915452e-03 
  0.28571429  0.42857143  0.71428571  2.915452e-03 
  0.28571429  0.42857143  0.85714286  2.915452e-03 
  0.28571429  0.57142857  0.00000000  2.915452e-03 
  0.28571429  0.57142857  0.14285714  2.915452e-03 
  0.28571429  0.57142857  0.28571429  2.915452e-03 
  0.28571429  0.57142857  0.42857143  2.915452e-03 
  0.28571429  0.57142857  0.57142857  2.915452e-03 
  0.28571429  0.57142857  0.71428571  2.915452e-03 
  0.28571429  0.57142857  0.85714286  2.915452e-03 
  0.28571429  0.71428571  0.00000000  2.915452e-03 
  0.28571429  0.71428571  0.14285714  2.915452e-03 
  0.28571429  0.71428571  0.28571429  2.915452e-03 
  0.28571429  0.71428571  0.42857143  2.915452e-03 
  0.28571429  0.71428571  0.57142857  2.915452e-03 
  0.28571429  0.71428571  0.71428571  2.915452e-03 
  0.28571429  0.71428571  0.85714286  2.915452e-03 
  0.28571429  0.85714286  0.00000000  2.915452e-03 
  0.28571429  0.85714286  0.14285714  2.915452e-03 
  0.28571429  0.85714286  0.28571429  2.915452e-03 
  0.28571429  0.85714286  0.42857143  2.915452e-03 
  0.28571429  0.85714286  0.57142857  2.915452e-03 
  0.28571429  0.85714286  0.71428571  2.915452e-03 
  0.28571429  0.85714286  0.85714286  2.915452e-03 
  0.42857143  0.00000000  0.00000000  2.915452e-03 
  0.42857143  0.00000000  0.14285714  2.915452e-03 
  0.42857143  0.00000000  0.28571429  2.915452e-03 
  0.42857143  0.00000000  0.42857143  2.915452e-03 
  0.42857143  0.00000000  0.57142857  2.915452e-03 
  0.42857143  0.00000000  0.71428571  2.915452e-03 
  0.42857143  0.00000000  0.85714286  2.915452e-03 
  0.42857143  0.14285714  0.00000000  2.915452e-03 
  0.42857143  0.14285714  0.14285714  2.915452e-03 
  0.42857143  0.14285714  0.28571429  2.915452e-03 
  0.42857143  0.14285714  0.42857143  2.915452e-03 
  0.42857143  0.14285714  0.57142857  2.915452e-03 
  0.42857143  0.14285714  0.71428571  2.915452e-03 
  0.42857143  0.14285714  0.85714286  2.915452e-03 
  0.42857143  0.28571429  0.00000000  2.915452e-03 
  0.42857143  0.28571429  0.14285714  2.915452e-03 
  0.42857143  0.28571429  0.28571429  2.915452e-03 
  0.42857143  0.28571429  0.42857143  2.915452e-03 
  0.42857143  0.28571429  0.57142857  2.915452e-03 
  0.42857143  0.28571429  0.71428571  2.915452e-03 
  0.42857143  0.28571429  0.85714286  2.915452e-03 
  0.42857143  0.42857143  0.00000000  2.915452e-03 
  0.42857143  0.42857143  0.14285714  2.915452e-03 
  0.42857143  0.42857143  0.28571429  2.915452e-03 
  0.42857143  0.42857143  0.42857143  2.915452e-03 
  0.42857143  0.42857143  0.57142857  2.915452e-03 
  0.42857143  0.42857143  0.71428571  2.915452e-03 
  0.42857143  0.42857143  0.85714286  2.915452e-03 
  0.42857143  0.57142857  0.00000000  2.915452e-03 
  0.42857143  0.57142857  0.14285714  2.915452e-03 
  0.42857143  0.57142857  0.28571429  2.915452e-03 
  0.42857143  0.57142857  0.42857143  2.915452e-03 
  0.42857143  0.57142857  0.57142857  2.915452e-03 
  0.42857143  0.57142857  0.71428571  2.915452e-03 
  0.42857143  0.57142857  0.85714286  2.915452e-03 
  0.42857143  0.71428571  0.00000000  2.915452e-03 
  0.42857143  0.71428571  0.14285714  2.915452e-03 
  0.42857143  0.71428571  0.28571429  2.915452e-03 
  0.42857143  0.71428571  0.42857143  2.915452e-03 
  0.42857143  0.71428571  0.57142857  2.915452e-03 
  0.42857143  0.71428571  0.71428571  2.915452e-03 
  0.42857143  0.71428571  0.85714286  2.915452e-03 
  0.42857143  0.85714286  0.00000000  2.915452e-03 
  0.42857143  0.85714286  0.14285714  2.915452e-03 
  0.42857143  0.85714286  0.28571429  2.915452e-03 
  0.42857143  0.85714286  0.42857143  2.915452e-03 
  0.42857143  0.85714286  0.57142857  2.915452e-03 
  0.42857143  0.85714286  0.71428571  2.915452e-03 
  0.42857143  0.85714286  0.85714286  2.915452e-03 
  0.57142857  0.00000000  0.00000000  2.915452e-03 
  0.57142857  0.00000000  0.14285714  2.915452e-03 
  0.57142857  0.00000000  0.28571429  2.915452e-03 
  0.57142857  0.00000000  0.42857143  2.915452e-03 
  0.57142857  0.00000000  0.57142857  2.915452e-03 
  0.57142857  0.00000000  0.71428571  2.915452e-03 
  0.57142857  0.00000000  0.85714286  2.915452e-03 
  0.57142857  0.14285714  0.00000000  2.915452e-03 
  0.57142857  0.14285714  0.14285714  2.915452e-03 
  0.57142857  0.14285714  0.28571429  2.915452e-03 
  0.57142857  0.14285714  0.42857143  2.915452e-03 
  0.57142857  0.14285714  0.57142857  2.915452e-03 
  0.57142857  0.14285714  0.71428571  2.915452e-03 
  0.57142857  0.14285714  0.85714286  2.915452e-03 
  0.57142857  0.28571429  0.00000000  2.915452e-03 
  0.57142857  0.28571429  0.14285714  2.915452e-03 
  0.57142857  0.28571429  0.28571429  2.915452e-03 
  0.57142857  0.28571429  0.42857143  2.915452e-03 
  0.57142857  0.28571429  0.57142857  2.915452e-03 
  0.57142857  0.28571429  0.71428571  2.915452e-03 
  0.57142857  0.28571429  0.85714286  2.915452e-03 
  0.57142857  0.42857143  0.00000000  2.915452e-03 
  0.57142857  0.42857143  0.14285714  2.915452e-03 
  0.57142857  0.42857143  0.28571429  2.915452e-03 
  0.57142857  0.42857143  0.42857143  2.915452e-03 
  0.57142857  0.42857143  0.57142857  2.915452e-03 
  0.57142857  0.42857143  0.71428571  2.915452e-03 
  0.57142857  0.42857143  0.85714286  2.915452e-03 
  0.57142857  0.57142857  0.00000000  2.915452e-03 
  0.57142857  0.57142857  0.14285714  2.915452e-03 
  0.57142857  0.57142857  0.28571429  2.915452e-03 
  0.57142857  0.57142857  0.42857143  2.915452e-03 
  0.57142857  0.57142857  0.57142857  2.915452e-03 
  0.57142857  0.57142857  0.71428571  2.915452e-03 
  0.57142857  0.57142857  0.85714286  2.915452e-03 
  0.57142857  0.71428571  0.00000000  2.915452e-03 
  0.57142857  0.71428571  0.14285714  2.915452e-03 
  0.57142857  0.71428571  0.28571429  2.915452e-03 
  0.57142857  0.71428571  0.42857143  2.915452e-03 
  0.57142857  0.71428571  0.57142857  2.915452e-03 
  0.57142857  0.71428571  0.71428571  2.915452e-03 
  0.57142857  0.71428571  0.85714286  2.915452e-03 
  0.57142857  0.85714286  0.00000000  2.915452e-03 
  0.57142857  0.85714286  0.14285714  2.915452e-03 
  0.57142857  0.85714286  0.28571429  2.915452e-03 
  0.57142857  0.85714286  0.42857143  2.915452e-03 
  0.57142857  0.85714286  0.57142857  2.915452e-03 
  0.57142857  0.85714286  0.71428571  2.915452e-03 
  0.57142857  0.85714286  0.85714286  2.915452e-03 
  0.71428571  0.00000000  0.00000000  2.915452e-03 
  0.71428571  0.00000000  0.14285714  2.915452e-03 
  0.71428571  0.00000000  0.28571429  2.915452e-03 
  0.71428571  0.00000000  0.42857143  2.915452e-03 
  0.71428571  0.00000000  0.57142857  2.915452e-03 
  0.71428571  0.00000000  0.71428571  2.915452e-03 
  0.71428571  0.00000000  0.85714286  2.915452e-03 
  0.71428571  0.14285714  0.00000000  2.915452e-03 
  0.71428571  0.14285714  0.14285714  2.915452e-03 
  0.71428571  0.14285714  0.28571429  2.915452e-03 
  0.71428571  0.14285714  0.42857143  2.915452e-03 
  0.71428571  0.14285714  0.57142857  2.915452e-03 
  0.71428571  0.14285714  0.71428571  2.915452e-03 
  0.71428571  0.14285714  0.85714286  2.915452e-03 
  0.71428571  0.28571429  0.00000000  2.915452e-03 
  0.71428571  0.28571429  0.14285714  2.915452e-03 
  0.71428571  0.28571429  0.28571429  2.915452e-03 
  0.71428571  0.28571429  0.42857143  2.915452e-03 
  0.71428571  0.28571429  0.57142857  2.915452e-03 
  0.71428571  0.28571429  0.71428571  2.915452e-03 
  0.71428571  0.28571429  0.85714286  2.915452e-03 
  0.71428571  0.42857143  0.00000000  2.915452e-03 
  0.71428571  0.42857143  0.14285714  2.915452e-03 
  0.71428571  0.42857143  0.28571429  2.915452e-03 
  0.71428571  0.42857143  0.42857143  2.915452e-03 
  0.71428571  0.42857143  0.57142857  2.915452e-03 
  0.71428571  0.42857143  0.71428571  2.915452e-03 
  0.71428571  0.42857143  0.85714286  2.915452e-03 
  0.71428571  0.57142857  0.00000000  2.915452e-03 
  0.71428571  0.57142857  0.14285714  2.915452e-03 
  0.71428571  0.57142857  0.28571429  2.915452e-03 
  0.71428571  0.57142857  0.42857143  2.915452e-03 
  0.71428571  0.57142857  0.57142857  2.915452e-03 
  0.71428571  0.57142857  0.71428571  2.915452e-03 
  0.71428571  0.57142857  0.85714286  2.915452e-03 
  0.71428571  0.71428571  0.00000000  2.915452e-03 
  0.71428571  0.71428571  0.14285714  2.915452e-03 
  0.71428571  0.71428571  0.28571429  2.915452e-03 
  0.71428571  0.71428571  0.42857143  2.915452e-03 
  0.71428571  0.71428571  0.57142857  2.915452e-03 
  0.71428571  0.71428571  0.71428571  2.915452e-03 
  0.71428571  0.71428571  0.85714286  2.915452e-03 
  0.71428571  0.85714286  0.00000000  2.915452e-03 
  0.71428571  0.85714286  0.14285714  2.915452e-03 
  0.71428571  0.85714286  0.28571429  2.915452e-03 
  0.71428571  0.85714286  0.42857143  2.915452e-03 
  0.71428571  0.85714286  0.57142857  2.915452e-03 
  0.71428571  0.85714286  0.71428571  2.915452e-03 
  0.71428571  0.85714286  0.85714286  2.915452e-03 
  0.85714286  0.00000000  0.00000000  2.915452e-03 
  0.85714286  0.00000000  0.14285714  2.915452e-03 
  0.85714286  0.00000000  0.28571429  2.915452e-03 
  0.85714286  0.00000000  0.42857143  2.915452e-03 
  0.85714286  0.00000000  0.57142857  2.915452e-03 
  0.85714286  0.00000000  0.71428571  2.915452e-03 
  0.85714286  0.00000000  0.85714286  2.915452e-03 
  0.85714286  0.14285714  0.00000000  2.915452e-03 
  0.85714286  0.14285714  0.14285714  2.915452e-03 
  0.85714286  0.14285714  0.28571429  2.915452e-03 
  0.85714286  0.14285714  0.42857143  2.915452e-03 
  0.85714286  0.14285714  0.57142857  2.915452e-03 
  0.85714286  0.14285714  0.71428571  2.915452e-03 
  0.85714286  0.14285714  0.85714286  2.915452e-03 
  0.85714286  0.28571429  0.00000000  2.915452e-03 
  0.85714286  0.28571429  0.14285714  2.915452e-03 
  0.85714286  0.28571429  0.28571429  2.915452e-03 
  0.85714286  0.28571429  0.42857143  2.915452e-03 
  0.85714286  0.28571429  0.57142857  2.915452e-03 
  0.85714286  0.28571429  0.71428571  2.915452e-03 
  0.85714286  0.28571429  0.85714286  2.915452e-03 
  0.85714286  0.42857143  0.00000000  2.915452e-03 
  0.85714286  0.42857143  0.14285714  2.915452e-03 
  0.85714286  0.42857143  0.28571429  2.915452e-03 
  0.85714286  0.42857143  0.42857143  2.915452e-03 
  0.85714286  0.42857143  0.57142857  2.915452e-03 
  0.85714286  0.42857143  0.71428571  2.915452e-03 
  0.85714286  0.42857143  0.85714286  2.915452e-03 
  0.85714286  0.57142857  0.00000000  2.915452e-03 
  0.85714286  0.57142857  0.14285714  2.915452e-03 
  0.85714286  0.57142857  0.28571429  2.915452e-03 
  0.85714286  0.57142857  0.42857143  2.915452e-03 
  0.85714286  0.57142857  0.57142857  2.915452e-03 
  0.85714286  0.57142857  0.71428571  2.915452e-03 
  0.85714286  0.57142857  0.85714286  2.915452e-03 
  0.85714286  0.71428571  0.00000000  2.915452e-03 
  0.85714286  0.71428571  0.14285714  2.915452e-03 
  0.85714286  0.71428571  0.28571429  2.915452e-03 
  0.85714286  0.71428571  0.42857143  2.915452e-03 
  0.85714286  0.71428571  0.57142857  2.915452e-03 
  0.85714286  0.71428571  0.71428571  2.915452e-03 
  0.85714286  0.71428571  0.85714286  2.915452e-03 
  0.85714286  0.85714286  0.00000000  2.915452e-03 
  0.85714286  0.85714286  0.14285714  2.915452e-03 
  0.85714286  0.85714286  0.28571429  2.915452e-03 
  0.85714286  0.85714286  0.42857143  2.915452e-03 
  0.85714286  0.85714286  0.57142857  2.915452e-03 
  0.85714286  0.85714286  0.71428571  2.915452e-03 
  0.85714286  0.85714286  0.85714286  2.915452e-03 
