&inputpp
  outdir     =  './out'
  prefix     =  'W'
  seedname   =  'W'
  write_amn  = .true.
  write_mmn  = .true.
  write_unk  = .false.
