num_wann = 18
num_bands = 40

auto_projections = .true.

dis_froz_proj = .true.
dis_proj_max =   0.95
dis_proj_min =   0.01

! you can also as a energy window to be safe
dis_froz_max = 8.7

fermi_energy =   6.7332

num_iter = 4000
conv_tol =   2.0000000000d-10
conv_window = 3
dis_conv_tol =   2.0000000000d-10
dis_num_iter = 4000
num_cg_steps = 200

mp_grid = 10 10 10

bands_plot = .true.
begin atoms_cart
ang
Si         4.0482056439       1.3494018813       4.0482056439
Si         0.0000000000       0.0000000000       0.0000000000
end atoms_cart

begin unit_cell_cart
ang
      0.0000000000       2.6988037626       2.6988037626
      2.6988037626       0.0000000000       2.6988037626
      2.6988037626       2.6988037626       0.0000000000
end unit_cell_cart

begin kpoint_path
G       0.0000000000       0.0000000000       0.0000000000  X       0.5000000000       0.0000000000       0.5000000000
X       0.5000000000       0.0000000000       0.5000000000  U       0.6250000000       0.2500000000       0.6250000000
K       0.3750000000       0.3750000000       0.7500000000  G       0.0000000000       0.0000000000       0.0000000000
G       0.0000000000       0.0000000000       0.0000000000  L       0.5000000000       0.5000000000       0.5000000000
L       0.5000000000       0.5000000000       0.5000000000  W       0.5000000000       0.2500000000       0.7500000000
W       0.5000000000       0.2500000000       0.7500000000  X       0.5000000000       0.0000000000       0.5000000000
end kpoint_path

begin kpoints
  0.00000000  0.00000000  0.00000000
  0.00000000  0.00000000  0.10000000
  0.00000000  0.00000000  0.20000000
  0.00000000  0.00000000  0.30000000
  0.00000000  0.00000000  0.40000000
  0.00000000  0.00000000  0.50000000
  0.00000000  0.00000000  0.60000000
  0.00000000  0.00000000  0.70000000
  0.00000000  0.00000000  0.80000000
  0.00000000  0.00000000  0.90000000
  0.00000000  0.10000000  0.00000000
  0.00000000  0.10000000  0.10000000
  0.00000000  0.10000000  0.20000000
  0.00000000  0.10000000  0.30000000
  0.00000000  0.10000000  0.40000000
  0.00000000  0.10000000  0.50000000
  0.00000000  0.10000000  0.60000000
  0.00000000  0.10000000  0.70000000
  0.00000000  0.10000000  0.80000000
  0.00000000  0.10000000  0.90000000
  0.00000000  0.20000000  0.00000000
  0.00000000  0.20000000  0.10000000
  0.00000000  0.20000000  0.20000000
  0.00000000  0.20000000  0.30000000
  0.00000000  0.20000000  0.40000000
  0.00000000  0.20000000  0.50000000
  0.00000000  0.20000000  0.60000000
  0.00000000  0.20000000  0.70000000
  0.00000000  0.20000000  0.80000000
  0.00000000  0.20000000  0.90000000
  0.00000000  0.30000000  0.00000000
  0.00000000  0.30000000  0.10000000
  0.00000000  0.30000000  0.20000000
  0.00000000  0.30000000  0.30000000
  0.00000000  0.30000000  0.40000000
  0.00000000  0.30000000  0.50000000
  0.00000000  0.30000000  0.60000000
  0.00000000  0.30000000  0.70000000
  0.00000000  0.30000000  0.80000000
  0.00000000  0.30000000  0.90000000
  0.00000000  0.40000000  0.00000000
  0.00000000  0.40000000  0.10000000
  0.00000000  0.40000000  0.20000000
  0.00000000  0.40000000  0.30000000
  0.00000000  0.40000000  0.40000000
  0.00000000  0.40000000  0.50000000
  0.00000000  0.40000000  0.60000000
  0.00000000  0.40000000  0.70000000
  0.00000000  0.40000000  0.80000000
  0.00000000  0.40000000  0.90000000
  0.00000000  0.50000000  0.00000000
  0.00000000  0.50000000  0.10000000
  0.00000000  0.50000000  0.20000000
  0.00000000  0.50000000  0.30000000
  0.00000000  0.50000000  0.40000000
  0.00000000  0.50000000  0.50000000
  0.00000000  0.50000000  0.60000000
  0.00000000  0.50000000  0.70000000
  0.00000000  0.50000000  0.80000000
  0.00000000  0.50000000  0.90000000
  0.00000000  0.60000000  0.00000000
  0.00000000  0.60000000  0.10000000
  0.00000000  0.60000000  0.20000000
  0.00000000  0.60000000  0.30000000
  0.00000000  0.60000000  0.40000000
  0.00000000  0.60000000  0.50000000
  0.00000000  0.60000000  0.60000000
  0.00000000  0.60000000  0.70000000
  0.00000000  0.60000000  0.80000000
  0.00000000  0.60000000  0.90000000
  0.00000000  0.70000000  0.00000000
  0.00000000  0.70000000  0.10000000
  0.00000000  0.70000000  0.20000000
  0.00000000  0.70000000  0.30000000
  0.00000000  0.70000000  0.40000000
  0.00000000  0.70000000  0.50000000
  0.00000000  0.70000000  0.60000000
  0.00000000  0.70000000  0.70000000
  0.00000000  0.70000000  0.80000000
  0.00000000  0.70000000  0.90000000
  0.00000000  0.80000000  0.00000000
  0.00000000  0.80000000  0.10000000
  0.00000000  0.80000000  0.20000000
  0.00000000  0.80000000  0.30000000
  0.00000000  0.80000000  0.40000000
  0.00000000  0.80000000  0.50000000
  0.00000000  0.80000000  0.60000000
  0.00000000  0.80000000  0.70000000
  0.00000000  0.80000000  0.80000000
  0.00000000  0.80000000  0.90000000
  0.00000000  0.90000000  0.00000000
  0.00000000  0.90000000  0.10000000
  0.00000000  0.90000000  0.20000000
  0.00000000  0.90000000  0.30000000
  0.00000000  0.90000000  0.40000000
  0.00000000  0.90000000  0.50000000
  0.00000000  0.90000000  0.60000000
  0.00000000  0.90000000  0.70000000
  0.00000000  0.90000000  0.80000000
  0.00000000  0.90000000  0.90000000
  0.10000000  0.00000000  0.00000000
  0.10000000  0.00000000  0.10000000
  0.10000000  0.00000000  0.20000000
  0.10000000  0.00000000  0.30000000
  0.10000000  0.00000000  0.40000000
  0.10000000  0.00000000  0.50000000
  0.10000000  0.00000000  0.60000000
  0.10000000  0.00000000  0.70000000
  0.10000000  0.00000000  0.80000000
  0.10000000  0.00000000  0.90000000
  0.10000000  0.10000000  0.00000000
  0.10000000  0.10000000  0.10000000
  0.10000000  0.10000000  0.20000000
  0.10000000  0.10000000  0.30000000
  0.10000000  0.10000000  0.40000000
  0.10000000  0.10000000  0.50000000
  0.10000000  0.10000000  0.60000000
  0.10000000  0.10000000  0.70000000
  0.10000000  0.10000000  0.80000000
  0.10000000  0.10000000  0.90000000
  0.10000000  0.20000000  0.00000000
  0.10000000  0.20000000  0.10000000
  0.10000000  0.20000000  0.20000000
  0.10000000  0.20000000  0.30000000
  0.10000000  0.20000000  0.40000000
  0.10000000  0.20000000  0.50000000
  0.10000000  0.20000000  0.60000000
  0.10000000  0.20000000  0.70000000
  0.10000000  0.20000000  0.80000000
  0.10000000  0.20000000  0.90000000
  0.10000000  0.30000000  0.00000000
  0.10000000  0.30000000  0.10000000
  0.10000000  0.30000000  0.20000000
  0.10000000  0.30000000  0.30000000
  0.10000000  0.30000000  0.40000000
  0.10000000  0.30000000  0.50000000
  0.10000000  0.30000000  0.60000000
  0.10000000  0.30000000  0.70000000
  0.10000000  0.30000000  0.80000000
  0.10000000  0.30000000  0.90000000
  0.10000000  0.40000000  0.00000000
  0.10000000  0.40000000  0.10000000
  0.10000000  0.40000000  0.20000000
  0.10000000  0.40000000  0.30000000
  0.10000000  0.40000000  0.40000000
  0.10000000  0.40000000  0.50000000
  0.10000000  0.40000000  0.60000000
  0.10000000  0.40000000  0.70000000
  0.10000000  0.40000000  0.80000000
  0.10000000  0.40000000  0.90000000
  0.10000000  0.50000000  0.00000000
  0.10000000  0.50000000  0.10000000
  0.10000000  0.50000000  0.20000000
  0.10000000  0.50000000  0.30000000
  0.10000000  0.50000000  0.40000000
  0.10000000  0.50000000  0.50000000
  0.10000000  0.50000000  0.60000000
  0.10000000  0.50000000  0.70000000
  0.10000000  0.50000000  0.80000000
  0.10000000  0.50000000  0.90000000
  0.10000000  0.60000000  0.00000000
  0.10000000  0.60000000  0.10000000
  0.10000000  0.60000000  0.20000000
  0.10000000  0.60000000  0.30000000
  0.10000000  0.60000000  0.40000000
  0.10000000  0.60000000  0.50000000
  0.10000000  0.60000000  0.60000000
  0.10000000  0.60000000  0.70000000
  0.10000000  0.60000000  0.80000000
  0.10000000  0.60000000  0.90000000
  0.10000000  0.70000000  0.00000000
  0.10000000  0.70000000  0.10000000
  0.10000000  0.70000000  0.20000000
  0.10000000  0.70000000  0.30000000
  0.10000000  0.70000000  0.40000000
  0.10000000  0.70000000  0.50000000
  0.10000000  0.70000000  0.60000000
  0.10000000  0.70000000  0.70000000
  0.10000000  0.70000000  0.80000000
  0.10000000  0.70000000  0.90000000
  0.10000000  0.80000000  0.00000000
  0.10000000  0.80000000  0.10000000
  0.10000000  0.80000000  0.20000000
  0.10000000  0.80000000  0.30000000
  0.10000000  0.80000000  0.40000000
  0.10000000  0.80000000  0.50000000
  0.10000000  0.80000000  0.60000000
  0.10000000  0.80000000  0.70000000
  0.10000000  0.80000000  0.80000000
  0.10000000  0.80000000  0.90000000
  0.10000000  0.90000000  0.00000000
  0.10000000  0.90000000  0.10000000
  0.10000000  0.90000000  0.20000000
  0.10000000  0.90000000  0.30000000
  0.10000000  0.90000000  0.40000000
  0.10000000  0.90000000  0.50000000
  0.10000000  0.90000000  0.60000000
  0.10000000  0.90000000  0.70000000
  0.10000000  0.90000000  0.80000000
  0.10000000  0.90000000  0.90000000
  0.20000000  0.00000000  0.00000000
  0.20000000  0.00000000  0.10000000
  0.20000000  0.00000000  0.20000000
  0.20000000  0.00000000  0.30000000
  0.20000000  0.00000000  0.40000000
  0.20000000  0.00000000  0.50000000
  0.20000000  0.00000000  0.60000000
  0.20000000  0.00000000  0.70000000
  0.20000000  0.00000000  0.80000000
  0.20000000  0.00000000  0.90000000
  0.20000000  0.10000000  0.00000000
  0.20000000  0.10000000  0.10000000
  0.20000000  0.10000000  0.20000000
  0.20000000  0.10000000  0.30000000
  0.20000000  0.10000000  0.40000000
  0.20000000  0.10000000  0.50000000
  0.20000000  0.10000000  0.60000000
  0.20000000  0.10000000  0.70000000
  0.20000000  0.10000000  0.80000000
  0.20000000  0.10000000  0.90000000
  0.20000000  0.20000000  0.00000000
  0.20000000  0.20000000  0.10000000
  0.20000000  0.20000000  0.20000000
  0.20000000  0.20000000  0.30000000
  0.20000000  0.20000000  0.40000000
  0.20000000  0.20000000  0.50000000
  0.20000000  0.20000000  0.60000000
  0.20000000  0.20000000  0.70000000
  0.20000000  0.20000000  0.80000000
  0.20000000  0.20000000  0.90000000
  0.20000000  0.30000000  0.00000000
  0.20000000  0.30000000  0.10000000
  0.20000000  0.30000000  0.20000000
  0.20000000  0.30000000  0.30000000
  0.20000000  0.30000000  0.40000000
  0.20000000  0.30000000  0.50000000
  0.20000000  0.30000000  0.60000000
  0.20000000  0.30000000  0.70000000
  0.20000000  0.30000000  0.80000000
  0.20000000  0.30000000  0.90000000
  0.20000000  0.40000000  0.00000000
  0.20000000  0.40000000  0.10000000
  0.20000000  0.40000000  0.20000000
  0.20000000  0.40000000  0.30000000
  0.20000000  0.40000000  0.40000000
  0.20000000  0.40000000  0.50000000
  0.20000000  0.40000000  0.60000000
  0.20000000  0.40000000  0.70000000
  0.20000000  0.40000000  0.80000000
  0.20000000  0.40000000  0.90000000
  0.20000000  0.50000000  0.00000000
  0.20000000  0.50000000  0.10000000
  0.20000000  0.50000000  0.20000000
  0.20000000  0.50000000  0.30000000
  0.20000000  0.50000000  0.40000000
  0.20000000  0.50000000  0.50000000
  0.20000000  0.50000000  0.60000000
  0.20000000  0.50000000  0.70000000
  0.20000000  0.50000000  0.80000000
  0.20000000  0.50000000  0.90000000
  0.20000000  0.60000000  0.00000000
  0.20000000  0.60000000  0.10000000
  0.20000000  0.60000000  0.20000000
  0.20000000  0.60000000  0.30000000
  0.20000000  0.60000000  0.40000000
  0.20000000  0.60000000  0.50000000
  0.20000000  0.60000000  0.60000000
  0.20000000  0.60000000  0.70000000
  0.20000000  0.60000000  0.80000000
  0.20000000  0.60000000  0.90000000
  0.20000000  0.70000000  0.00000000
  0.20000000  0.70000000  0.10000000
  0.20000000  0.70000000  0.20000000
  0.20000000  0.70000000  0.30000000
  0.20000000  0.70000000  0.40000000
  0.20000000  0.70000000  0.50000000
  0.20000000  0.70000000  0.60000000
  0.20000000  0.70000000  0.70000000
  0.20000000  0.70000000  0.80000000
  0.20000000  0.70000000  0.90000000
  0.20000000  0.80000000  0.00000000
  0.20000000  0.80000000  0.10000000
  0.20000000  0.80000000  0.20000000
  0.20000000  0.80000000  0.30000000
  0.20000000  0.80000000  0.40000000
  0.20000000  0.80000000  0.50000000
  0.20000000  0.80000000  0.60000000
  0.20000000  0.80000000  0.70000000
  0.20000000  0.80000000  0.80000000
  0.20000000  0.80000000  0.90000000
  0.20000000  0.90000000  0.00000000
  0.20000000  0.90000000  0.10000000
  0.20000000  0.90000000  0.20000000
  0.20000000  0.90000000  0.30000000
  0.20000000  0.90000000  0.40000000
  0.20000000  0.90000000  0.50000000
  0.20000000  0.90000000  0.60000000
  0.20000000  0.90000000  0.70000000
  0.20000000  0.90000000  0.80000000
  0.20000000  0.90000000  0.90000000
  0.30000000  0.00000000  0.00000000
  0.30000000  0.00000000  0.10000000
  0.30000000  0.00000000  0.20000000
  0.30000000  0.00000000  0.30000000
  0.30000000  0.00000000  0.40000000
  0.30000000  0.00000000  0.50000000
  0.30000000  0.00000000  0.60000000
  0.30000000  0.00000000  0.70000000
  0.30000000  0.00000000  0.80000000
  0.30000000  0.00000000  0.90000000
  0.30000000  0.10000000  0.00000000
  0.30000000  0.10000000  0.10000000
  0.30000000  0.10000000  0.20000000
  0.30000000  0.10000000  0.30000000
  0.30000000  0.10000000  0.40000000
  0.30000000  0.10000000  0.50000000
  0.30000000  0.10000000  0.60000000
  0.30000000  0.10000000  0.70000000
  0.30000000  0.10000000  0.80000000
  0.30000000  0.10000000  0.90000000
  0.30000000  0.20000000  0.00000000
  0.30000000  0.20000000  0.10000000
  0.30000000  0.20000000  0.20000000
  0.30000000  0.20000000  0.30000000
  0.30000000  0.20000000  0.40000000
  0.30000000  0.20000000  0.50000000
  0.30000000  0.20000000  0.60000000
  0.30000000  0.20000000  0.70000000
  0.30000000  0.20000000  0.80000000
  0.30000000  0.20000000  0.90000000
  0.30000000  0.30000000  0.00000000
  0.30000000  0.30000000  0.10000000
  0.30000000  0.30000000  0.20000000
  0.30000000  0.30000000  0.30000000
  0.30000000  0.30000000  0.40000000
  0.30000000  0.30000000  0.50000000
  0.30000000  0.30000000  0.60000000
  0.30000000  0.30000000  0.70000000
  0.30000000  0.30000000  0.80000000
  0.30000000  0.30000000  0.90000000
  0.30000000  0.40000000  0.00000000
  0.30000000  0.40000000  0.10000000
  0.30000000  0.40000000  0.20000000
  0.30000000  0.40000000  0.30000000
  0.30000000  0.40000000  0.40000000
  0.30000000  0.40000000  0.50000000
  0.30000000  0.40000000  0.60000000
  0.30000000  0.40000000  0.70000000
  0.30000000  0.40000000  0.80000000
  0.30000000  0.40000000  0.90000000
  0.30000000  0.50000000  0.00000000
  0.30000000  0.50000000  0.10000000
  0.30000000  0.50000000  0.20000000
  0.30000000  0.50000000  0.30000000
  0.30000000  0.50000000  0.40000000
  0.30000000  0.50000000  0.50000000
  0.30000000  0.50000000  0.60000000
  0.30000000  0.50000000  0.70000000
  0.30000000  0.50000000  0.80000000
  0.30000000  0.50000000  0.90000000
  0.30000000  0.60000000  0.00000000
  0.30000000  0.60000000  0.10000000
  0.30000000  0.60000000  0.20000000
  0.30000000  0.60000000  0.30000000
  0.30000000  0.60000000  0.40000000
  0.30000000  0.60000000  0.50000000
  0.30000000  0.60000000  0.60000000
  0.30000000  0.60000000  0.70000000
  0.30000000  0.60000000  0.80000000
  0.30000000  0.60000000  0.90000000
  0.30000000  0.70000000  0.00000000
  0.30000000  0.70000000  0.10000000
  0.30000000  0.70000000  0.20000000
  0.30000000  0.70000000  0.30000000
  0.30000000  0.70000000  0.40000000
  0.30000000  0.70000000  0.50000000
  0.30000000  0.70000000  0.60000000
  0.30000000  0.70000000  0.70000000
  0.30000000  0.70000000  0.80000000
  0.30000000  0.70000000  0.90000000
  0.30000000  0.80000000  0.00000000
  0.30000000  0.80000000  0.10000000
  0.30000000  0.80000000  0.20000000
  0.30000000  0.80000000  0.30000000
  0.30000000  0.80000000  0.40000000
  0.30000000  0.80000000  0.50000000
  0.30000000  0.80000000  0.60000000
  0.30000000  0.80000000  0.70000000
  0.30000000  0.80000000  0.80000000
  0.30000000  0.80000000  0.90000000
  0.30000000  0.90000000  0.00000000
  0.30000000  0.90000000  0.10000000
  0.30000000  0.90000000  0.20000000
  0.30000000  0.90000000  0.30000000
  0.30000000  0.90000000  0.40000000
  0.30000000  0.90000000  0.50000000
  0.30000000  0.90000000  0.60000000
  0.30000000  0.90000000  0.70000000
  0.30000000  0.90000000  0.80000000
  0.30000000  0.90000000  0.90000000
  0.40000000  0.00000000  0.00000000
  0.40000000  0.00000000  0.10000000
  0.40000000  0.00000000  0.20000000
  0.40000000  0.00000000  0.30000000
  0.40000000  0.00000000  0.40000000
  0.40000000  0.00000000  0.50000000
  0.40000000  0.00000000  0.60000000
  0.40000000  0.00000000  0.70000000
  0.40000000  0.00000000  0.80000000
  0.40000000  0.00000000  0.90000000
  0.40000000  0.10000000  0.00000000
  0.40000000  0.10000000  0.10000000
  0.40000000  0.10000000  0.20000000
  0.40000000  0.10000000  0.30000000
  0.40000000  0.10000000  0.40000000
  0.40000000  0.10000000  0.50000000
  0.40000000  0.10000000  0.60000000
  0.40000000  0.10000000  0.70000000
  0.40000000  0.10000000  0.80000000
  0.40000000  0.10000000  0.90000000
  0.40000000  0.20000000  0.00000000
  0.40000000  0.20000000  0.10000000
  0.40000000  0.20000000  0.20000000
  0.40000000  0.20000000  0.30000000
  0.40000000  0.20000000  0.40000000
  0.40000000  0.20000000  0.50000000
  0.40000000  0.20000000  0.60000000
  0.40000000  0.20000000  0.70000000
  0.40000000  0.20000000  0.80000000
  0.40000000  0.20000000  0.90000000
  0.40000000  0.30000000  0.00000000
  0.40000000  0.30000000  0.10000000
  0.40000000  0.30000000  0.20000000
  0.40000000  0.30000000  0.30000000
  0.40000000  0.30000000  0.40000000
  0.40000000  0.30000000  0.50000000
  0.40000000  0.30000000  0.60000000
  0.40000000  0.30000000  0.70000000
  0.40000000  0.30000000  0.80000000
  0.40000000  0.30000000  0.90000000
  0.40000000  0.40000000  0.00000000
  0.40000000  0.40000000  0.10000000
  0.40000000  0.40000000  0.20000000
  0.40000000  0.40000000  0.30000000
  0.40000000  0.40000000  0.40000000
  0.40000000  0.40000000  0.50000000
  0.40000000  0.40000000  0.60000000
  0.40000000  0.40000000  0.70000000
  0.40000000  0.40000000  0.80000000
  0.40000000  0.40000000  0.90000000
  0.40000000  0.50000000  0.00000000
  0.40000000  0.50000000  0.10000000
  0.40000000  0.50000000  0.20000000
  0.40000000  0.50000000  0.30000000
  0.40000000  0.50000000  0.40000000
  0.40000000  0.50000000  0.50000000
  0.40000000  0.50000000  0.60000000
  0.40000000  0.50000000  0.70000000
  0.40000000  0.50000000  0.80000000
  0.40000000  0.50000000  0.90000000
  0.40000000  0.60000000  0.00000000
  0.40000000  0.60000000  0.10000000
  0.40000000  0.60000000  0.20000000
  0.40000000  0.60000000  0.30000000
  0.40000000  0.60000000  0.40000000
  0.40000000  0.60000000  0.50000000
  0.40000000  0.60000000  0.60000000
  0.40000000  0.60000000  0.70000000
  0.40000000  0.60000000  0.80000000
  0.40000000  0.60000000  0.90000000
  0.40000000  0.70000000  0.00000000
  0.40000000  0.70000000  0.10000000
  0.40000000  0.70000000  0.20000000
  0.40000000  0.70000000  0.30000000
  0.40000000  0.70000000  0.40000000
  0.40000000  0.70000000  0.50000000
  0.40000000  0.70000000  0.60000000
  0.40000000  0.70000000  0.70000000
  0.40000000  0.70000000  0.80000000
  0.40000000  0.70000000  0.90000000
  0.40000000  0.80000000  0.00000000
  0.40000000  0.80000000  0.10000000
  0.40000000  0.80000000  0.20000000
  0.40000000  0.80000000  0.30000000
  0.40000000  0.80000000  0.40000000
  0.40000000  0.80000000  0.50000000
  0.40000000  0.80000000  0.60000000
  0.40000000  0.80000000  0.70000000
  0.40000000  0.80000000  0.80000000
  0.40000000  0.80000000  0.90000000
  0.40000000  0.90000000  0.00000000
  0.40000000  0.90000000  0.10000000
  0.40000000  0.90000000  0.20000000
  0.40000000  0.90000000  0.30000000
  0.40000000  0.90000000  0.40000000
  0.40000000  0.90000000  0.50000000
  0.40000000  0.90000000  0.60000000
  0.40000000  0.90000000  0.70000000
  0.40000000  0.90000000  0.80000000
  0.40000000  0.90000000  0.90000000
  0.50000000  0.00000000  0.00000000
  0.50000000  0.00000000  0.10000000
  0.50000000  0.00000000  0.20000000
  0.50000000  0.00000000  0.30000000
  0.50000000  0.00000000  0.40000000
  0.50000000  0.00000000  0.50000000
  0.50000000  0.00000000  0.60000000
  0.50000000  0.00000000  0.70000000
  0.50000000  0.00000000  0.80000000
  0.50000000  0.00000000  0.90000000
  0.50000000  0.10000000  0.00000000
  0.50000000  0.10000000  0.10000000
  0.50000000  0.10000000  0.20000000
  0.50000000  0.10000000  0.30000000
  0.50000000  0.10000000  0.40000000
  0.50000000  0.10000000  0.50000000
  0.50000000  0.10000000  0.60000000
  0.50000000  0.10000000  0.70000000
  0.50000000  0.10000000  0.80000000
  0.50000000  0.10000000  0.90000000
  0.50000000  0.20000000  0.00000000
  0.50000000  0.20000000  0.10000000
  0.50000000  0.20000000  0.20000000
  0.50000000  0.20000000  0.30000000
  0.50000000  0.20000000  0.40000000
  0.50000000  0.20000000  0.50000000
  0.50000000  0.20000000  0.60000000
  0.50000000  0.20000000  0.70000000
  0.50000000  0.20000000  0.80000000
  0.50000000  0.20000000  0.90000000
  0.50000000  0.30000000  0.00000000
  0.50000000  0.30000000  0.10000000
  0.50000000  0.30000000  0.20000000
  0.50000000  0.30000000  0.30000000
  0.50000000  0.30000000  0.40000000
  0.50000000  0.30000000  0.50000000
  0.50000000  0.30000000  0.60000000
  0.50000000  0.30000000  0.70000000
  0.50000000  0.30000000  0.80000000
  0.50000000  0.30000000  0.90000000
  0.50000000  0.40000000  0.00000000
  0.50000000  0.40000000  0.10000000
  0.50000000  0.40000000  0.20000000
  0.50000000  0.40000000  0.30000000
  0.50000000  0.40000000  0.40000000
  0.50000000  0.40000000  0.50000000
  0.50000000  0.40000000  0.60000000
  0.50000000  0.40000000  0.70000000
  0.50000000  0.40000000  0.80000000
  0.50000000  0.40000000  0.90000000
  0.50000000  0.50000000  0.00000000
  0.50000000  0.50000000  0.10000000
  0.50000000  0.50000000  0.20000000
  0.50000000  0.50000000  0.30000000
  0.50000000  0.50000000  0.40000000
  0.50000000  0.50000000  0.50000000
  0.50000000  0.50000000  0.60000000
  0.50000000  0.50000000  0.70000000
  0.50000000  0.50000000  0.80000000
  0.50000000  0.50000000  0.90000000
  0.50000000  0.60000000  0.00000000
  0.50000000  0.60000000  0.10000000
  0.50000000  0.60000000  0.20000000
  0.50000000  0.60000000  0.30000000
  0.50000000  0.60000000  0.40000000
  0.50000000  0.60000000  0.50000000
  0.50000000  0.60000000  0.60000000
  0.50000000  0.60000000  0.70000000
  0.50000000  0.60000000  0.80000000
  0.50000000  0.60000000  0.90000000
  0.50000000  0.70000000  0.00000000
  0.50000000  0.70000000  0.10000000
  0.50000000  0.70000000  0.20000000
  0.50000000  0.70000000  0.30000000
  0.50000000  0.70000000  0.40000000
  0.50000000  0.70000000  0.50000000
  0.50000000  0.70000000  0.60000000
  0.50000000  0.70000000  0.70000000
  0.50000000  0.70000000  0.80000000
  0.50000000  0.70000000  0.90000000
  0.50000000  0.80000000  0.00000000
  0.50000000  0.80000000  0.10000000
  0.50000000  0.80000000  0.20000000
  0.50000000  0.80000000  0.30000000
  0.50000000  0.80000000  0.40000000
  0.50000000  0.80000000  0.50000000
  0.50000000  0.80000000  0.60000000
  0.50000000  0.80000000  0.70000000
  0.50000000  0.80000000  0.80000000
  0.50000000  0.80000000  0.90000000
  0.50000000  0.90000000  0.00000000
  0.50000000  0.90000000  0.10000000
  0.50000000  0.90000000  0.20000000
  0.50000000  0.90000000  0.30000000
  0.50000000  0.90000000  0.40000000
  0.50000000  0.90000000  0.50000000
  0.50000000  0.90000000  0.60000000
  0.50000000  0.90000000  0.70000000
  0.50000000  0.90000000  0.80000000
  0.50000000  0.90000000  0.90000000
  0.60000000  0.00000000  0.00000000
  0.60000000  0.00000000  0.10000000
  0.60000000  0.00000000  0.20000000
  0.60000000  0.00000000  0.30000000
  0.60000000  0.00000000  0.40000000
  0.60000000  0.00000000  0.50000000
  0.60000000  0.00000000  0.60000000
  0.60000000  0.00000000  0.70000000
  0.60000000  0.00000000  0.80000000
  0.60000000  0.00000000  0.90000000
  0.60000000  0.10000000  0.00000000
  0.60000000  0.10000000  0.10000000
  0.60000000  0.10000000  0.20000000
  0.60000000  0.10000000  0.30000000
  0.60000000  0.10000000  0.40000000
  0.60000000  0.10000000  0.50000000
  0.60000000  0.10000000  0.60000000
  0.60000000  0.10000000  0.70000000
  0.60000000  0.10000000  0.80000000
  0.60000000  0.10000000  0.90000000
  0.60000000  0.20000000  0.00000000
  0.60000000  0.20000000  0.10000000
  0.60000000  0.20000000  0.20000000
  0.60000000  0.20000000  0.30000000
  0.60000000  0.20000000  0.40000000
  0.60000000  0.20000000  0.50000000
  0.60000000  0.20000000  0.60000000
  0.60000000  0.20000000  0.70000000
  0.60000000  0.20000000  0.80000000
  0.60000000  0.20000000  0.90000000
  0.60000000  0.30000000  0.00000000
  0.60000000  0.30000000  0.10000000
  0.60000000  0.30000000  0.20000000
  0.60000000  0.30000000  0.30000000
  0.60000000  0.30000000  0.40000000
  0.60000000  0.30000000  0.50000000
  0.60000000  0.30000000  0.60000000
  0.60000000  0.30000000  0.70000000
  0.60000000  0.30000000  0.80000000
  0.60000000  0.30000000  0.90000000
  0.60000000  0.40000000  0.00000000
  0.60000000  0.40000000  0.10000000
  0.60000000  0.40000000  0.20000000
  0.60000000  0.40000000  0.30000000
  0.60000000  0.40000000  0.40000000
  0.60000000  0.40000000  0.50000000
  0.60000000  0.40000000  0.60000000
  0.60000000  0.40000000  0.70000000
  0.60000000  0.40000000  0.80000000
  0.60000000  0.40000000  0.90000000
  0.60000000  0.50000000  0.00000000
  0.60000000  0.50000000  0.10000000
  0.60000000  0.50000000  0.20000000
  0.60000000  0.50000000  0.30000000
  0.60000000  0.50000000  0.40000000
  0.60000000  0.50000000  0.50000000
  0.60000000  0.50000000  0.60000000
  0.60000000  0.50000000  0.70000000
  0.60000000  0.50000000  0.80000000
  0.60000000  0.50000000  0.90000000
  0.60000000  0.60000000  0.00000000
  0.60000000  0.60000000  0.10000000
  0.60000000  0.60000000  0.20000000
  0.60000000  0.60000000  0.30000000
  0.60000000  0.60000000  0.40000000
  0.60000000  0.60000000  0.50000000
  0.60000000  0.60000000  0.60000000
  0.60000000  0.60000000  0.70000000
  0.60000000  0.60000000  0.80000000
  0.60000000  0.60000000  0.90000000
  0.60000000  0.70000000  0.00000000
  0.60000000  0.70000000  0.10000000
  0.60000000  0.70000000  0.20000000
  0.60000000  0.70000000  0.30000000
  0.60000000  0.70000000  0.40000000
  0.60000000  0.70000000  0.50000000
  0.60000000  0.70000000  0.60000000
  0.60000000  0.70000000  0.70000000
  0.60000000  0.70000000  0.80000000
  0.60000000  0.70000000  0.90000000
  0.60000000  0.80000000  0.00000000
  0.60000000  0.80000000  0.10000000
  0.60000000  0.80000000  0.20000000
  0.60000000  0.80000000  0.30000000
  0.60000000  0.80000000  0.40000000
  0.60000000  0.80000000  0.50000000
  0.60000000  0.80000000  0.60000000
  0.60000000  0.80000000  0.70000000
  0.60000000  0.80000000  0.80000000
  0.60000000  0.80000000  0.90000000
  0.60000000  0.90000000  0.00000000
  0.60000000  0.90000000  0.10000000
  0.60000000  0.90000000  0.20000000
  0.60000000  0.90000000  0.30000000
  0.60000000  0.90000000  0.40000000
  0.60000000  0.90000000  0.50000000
  0.60000000  0.90000000  0.60000000
  0.60000000  0.90000000  0.70000000
  0.60000000  0.90000000  0.80000000
  0.60000000  0.90000000  0.90000000
  0.70000000  0.00000000  0.00000000
  0.70000000  0.00000000  0.10000000
  0.70000000  0.00000000  0.20000000
  0.70000000  0.00000000  0.30000000
  0.70000000  0.00000000  0.40000000
  0.70000000  0.00000000  0.50000000
  0.70000000  0.00000000  0.60000000
  0.70000000  0.00000000  0.70000000
  0.70000000  0.00000000  0.80000000
  0.70000000  0.00000000  0.90000000
  0.70000000  0.10000000  0.00000000
  0.70000000  0.10000000  0.10000000
  0.70000000  0.10000000  0.20000000
  0.70000000  0.10000000  0.30000000
  0.70000000  0.10000000  0.40000000
  0.70000000  0.10000000  0.50000000
  0.70000000  0.10000000  0.60000000
  0.70000000  0.10000000  0.70000000
  0.70000000  0.10000000  0.80000000
  0.70000000  0.10000000  0.90000000
  0.70000000  0.20000000  0.00000000
  0.70000000  0.20000000  0.10000000
  0.70000000  0.20000000  0.20000000
  0.70000000  0.20000000  0.30000000
  0.70000000  0.20000000  0.40000000
  0.70000000  0.20000000  0.50000000
  0.70000000  0.20000000  0.60000000
  0.70000000  0.20000000  0.70000000
  0.70000000  0.20000000  0.80000000
  0.70000000  0.20000000  0.90000000
  0.70000000  0.30000000  0.00000000
  0.70000000  0.30000000  0.10000000
  0.70000000  0.30000000  0.20000000
  0.70000000  0.30000000  0.30000000
  0.70000000  0.30000000  0.40000000
  0.70000000  0.30000000  0.50000000
  0.70000000  0.30000000  0.60000000
  0.70000000  0.30000000  0.70000000
  0.70000000  0.30000000  0.80000000
  0.70000000  0.30000000  0.90000000
  0.70000000  0.40000000  0.00000000
  0.70000000  0.40000000  0.10000000
  0.70000000  0.40000000  0.20000000
  0.70000000  0.40000000  0.30000000
  0.70000000  0.40000000  0.40000000
  0.70000000  0.40000000  0.50000000
  0.70000000  0.40000000  0.60000000
  0.70000000  0.40000000  0.70000000
  0.70000000  0.40000000  0.80000000
  0.70000000  0.40000000  0.90000000
  0.70000000  0.50000000  0.00000000
  0.70000000  0.50000000  0.10000000
  0.70000000  0.50000000  0.20000000
  0.70000000  0.50000000  0.30000000
  0.70000000  0.50000000  0.40000000
  0.70000000  0.50000000  0.50000000
  0.70000000  0.50000000  0.60000000
  0.70000000  0.50000000  0.70000000
  0.70000000  0.50000000  0.80000000
  0.70000000  0.50000000  0.90000000
  0.70000000  0.60000000  0.00000000
  0.70000000  0.60000000  0.10000000
  0.70000000  0.60000000  0.20000000
  0.70000000  0.60000000  0.30000000
  0.70000000  0.60000000  0.40000000
  0.70000000  0.60000000  0.50000000
  0.70000000  0.60000000  0.60000000
  0.70000000  0.60000000  0.70000000
  0.70000000  0.60000000  0.80000000