&CONTROL
  calculation = 'scf'
  etot_conv_thr =   2.0000000000d-05
  forc_conv_thr =   1.0000000000d-04
  outdir = './out/'
  prefix = 'silicon'
  pseudo_dir = '../../pseudo/'
  verbosity = 'high'
/
&SYSTEM
  degauss =   1.0000000000d-02
  ecutwfc =   25
  ibrav = 0
  nat = 2
  nosym = .false.
  ntyp = 1
  occupations = 'smearing'
  smearing = 'cold'
/
&ELECTRONS
  conv_thr =   4.0000000000d-10
  electron_maxstep = 80
  mixing_beta =   4.0000000000d-01
/
ATOMIC_SPECIES
Si     28.085 Si.pbe-n-van.UPF
ATOMIC_POSITIONS angstrom
Si           4.0482056439       1.3494018813       4.0482056439 
Si           0.0000000000       0.0000000000       0.0000000000 
K_POINTS automatic
10 10 10 0 0 0
CELL_PARAMETERS angstrom
      0.0000000000       2.6988037626       2.6988037626
      2.6988037626       0.0000000000       2.6988037626
      2.6988037626       2.6988037626       0.0000000000
