! Gallium Arsenide: Tutorial Example 1

 num_wann    =  4 
 num_iter    = 20 
 use_ws_distance = .false.
search_shells=12

! SYSTEM

begin unit_cell_cart
bohr
-5.367  0.000  5.367
 0.000  5.367  5.367
-5.367  5.367  0.000
end unit_cell_cart

begin atoms_frac
Ga 0.00   0.00   0.00
As 0.25  0.25  0.25 
end atoms_frac
 
begin projections
As:sp3
end projections

! KPOINTS

mp_grid : 2 2 2

begin kpoints
0.0 0.0 0.0 
0.0 0.0 0.5 
0.0 0.5 0.0 
0.0 0.5 0.5 
0.5 0.0 0.0 
0.5 0.0 0.5 
0.5 0.5 0.0 
0.5 0.5 0.5 
end kpoints

! I only plot U matrices
! (on purpose, it's a regression test for issue #139)
write_u_matrices=.true.
