restart=plot
bands_plot=true
bands_num_points=200
begin kpoint_path
K 0.33333 0.33333 0.0  H 0.33333 0.33333 .5  
H 0.33333 0.33333 0.5  K 0.33333 0.33333 1.0  
end kpoint_path
num_bands=32
num_wann=24
Begin Projections
Te:sp3
end projections

uHu_formatted=False

spinors = .true.

begin unit_cell_cart
     4.4570000     0.0000000     0.0000000
    -2.2285000     3.8598752     0.0000000
     0.0000000     0.0000000     5.9581176
end unit_cell_cart

begin atoms_cart
Te       0.6106090     1.0576058     0.0000000
Te       3.2357820     0.0000000     1.9860392
Te      -1.6178910     2.8022694     3.9720784
end atoms_cart

mp_grid =     3     3     4

begin kpoints
      0.000000000000      0.000000000000      0.000000000000
      0.333333333333      0.000000000000      0.000000000000
     -0.333333333333      0.000000000000      0.000000000000
      0.000000000000      0.333333333333      0.000000000000
      0.333333333333      0.333333333333      0.000000000000
     -0.333333333333      0.333333333333      0.000000000000
      0.000000000000     -0.333333333333      0.000000000000
      0.333333333333     -0.333333333333      0.000000000000
     -0.333333333333     -0.333333333333      0.000000000000
      0.000000000000      0.000000000000      0.250000000000
      0.333333333333      0.000000000000      0.250000000000
     -0.333333333333      0.000000000000      0.250000000000
      0.000000000000      0.333333333333      0.250000000000
      0.333333333333      0.333333333333      0.250000000000
     -0.333333333333      0.333333333333      0.250000000000
      0.000000000000     -0.333333333333      0.250000000000
      0.333333333333     -0.333333333333      0.250000000000
     -0.333333333333     -0.333333333333      0.250000000000
      0.000000000000      0.000000000000      0.500000000000
      0.333333333333      0.000000000000      0.500000000000
     -0.333333333333      0.000000000000      0.500000000000
      0.000000000000      0.333333333333      0.500000000000
      0.333333333333      0.333333333333      0.500000000000
     -0.333333333333      0.333333333333      0.500000000000
      0.000000000000     -0.333333333333      0.500000000000
      0.333333333333     -0.333333333333      0.500000000000
     -0.333333333333     -0.333333333333      0.500000000000
      0.000000000000      0.000000000000     -0.250000000000
      0.333333333333      0.000000000000     -0.250000000000
     -0.333333333333      0.000000000000     -0.250000000000
      0.000000000000      0.333333333333     -0.250000000000
      0.333333333333      0.333333333333     -0.250000000000
     -0.333333333333      0.333333333333     -0.250000000000
      0.000000000000     -0.333333333333     -0.250000000000
      0.333333333333     -0.333333333333     -0.250000000000
     -0.333333333333     -0.333333333333     -0.250000000000
end kpoints
