&inputpp
    outdir='./'
    prefix='GaAs',
    seedname = 'GaAs'
    write_amn = .true.
    write_mmn = .true.
    write_unk = .true.
/
