&inputpp
  outdir     =  './'
  prefix     =  'Na_13chain'
  seedname   =  'Na_13chain'
  write_amn  =  .true.
  write_mmn  =  .true.
  write_unkg =  .true.
/
