shc_freq_scan = .true.
shc_alpha = 1
shc_beta = 2
shc_gamma = 3
spn_formatted = true

berry = true
berry_task = shc                
berry_kmesh = 10

fermi_energy = 7.9366

kubo_freq_min = 0.0
kubo_freq_max = 8.0
kubo_freq_step = 0.01
#kubo_eigval_max

# use scissors_shift
scissors_shift = 1.117
num_valence_bands = 8
# or use shc_bandshift
#shc_bandshift = true
#shc_bandshift_firstband = 9
#shc_bandshift_energyshift = 1.117

kubo_adpt_smr = false
#kubo_adpt_smr_fac = 1.414
#kubo_adpt_smr_max = 1.0
kubo_smr_fixed_en_width = 0.05

exclude_bands = 1-10
num_bands         =   16
num_wann          =   16

dis_num_iter      =  1000

dis_conv_tol      = 1.0e-10
conv_tol          = 1.0e-10
conv_window       = 40

num_iter          = 1000
guiding_centres = T

spinors = true
begin projections
As:sp3
Ga:sp3
end projections

begin unit_cell_cart
bohr
-5.342256    0           5.342256
0            5.342256    5.342256
-5.342256    5.342256    0
end unit_cell_cart

begin atoms_frac
Ga 0.00   0.00   0.00
As 0.25   0.25   0.25 
end atoms_frac

mp_grid           =  4   4   4

begin kpoints
  0.00000000  0.00000000  0.00000000 
  0.00000000  0.00000000  0.25000000 
  0.00000000  0.00000000  0.50000000 
  0.00000000  0.00000000  0.75000000 
  0.00000000  0.25000000  0.00000000 
  0.00000000  0.25000000  0.25000000 
  0.00000000  0.25000000  0.50000000 
  0.00000000  0.25000000  0.75000000 
  0.00000000  0.50000000  0.00000000 
  0.00000000  0.50000000  0.25000000 
  0.00000000  0.50000000  0.50000000 
  0.00000000  0.50000000  0.75000000 
  0.00000000  0.75000000  0.00000000 
  0.00000000  0.75000000  0.25000000 
  0.00000000  0.75000000  0.50000000 
  0.00000000  0.75000000  0.75000000 
  0.25000000  0.00000000  0.00000000 
  0.25000000  0.00000000  0.25000000 
  0.25000000  0.00000000  0.50000000 
  0.25000000  0.00000000  0.75000000 
  0.25000000  0.25000000  0.00000000 
  0.25000000  0.25000000  0.25000000 
  0.25000000  0.25000000  0.50000000 
  0.25000000  0.25000000  0.75000000 
  0.25000000  0.50000000  0.00000000 
  0.25000000  0.50000000  0.25000000 
  0.25000000  0.50000000  0.50000000 
  0.25000000  0.50000000  0.75000000 
  0.25000000  0.75000000  0.00000000 
  0.25000000  0.75000000  0.25000000 
  0.25000000  0.75000000  0.50000000 
  0.25000000  0.75000000  0.75000000 
  0.50000000  0.00000000  0.00000000 
  0.50000000  0.00000000  0.25000000 
  0.50000000  0.00000000  0.50000000 
  0.50000000  0.00000000  0.75000000 
  0.50000000  0.25000000  0.00000000 
  0.50000000  0.25000000  0.25000000 
  0.50000000  0.25000000  0.50000000 
  0.50000000  0.25000000  0.75000000 
  0.50000000  0.50000000  0.00000000 
  0.50000000  0.50000000  0.25000000 
  0.50000000  0.50000000  0.50000000 
  0.50000000  0.50000000  0.75000000 
  0.50000000  0.75000000  0.00000000 
  0.50000000  0.75000000  0.25000000 
  0.50000000  0.75000000  0.50000000 
  0.50000000  0.75000000  0.75000000 
  0.75000000  0.00000000  0.00000000 
  0.75000000  0.00000000  0.25000000 
  0.75000000  0.00000000  0.50000000 
  0.75000000  0.00000000  0.75000000 
  0.75000000  0.25000000  0.00000000 
  0.75000000  0.25000000  0.25000000 
  0.75000000  0.25000000  0.50000000 
  0.75000000  0.25000000  0.75000000 
  0.75000000  0.50000000  0.00000000 
  0.75000000  0.50000000  0.25000000 
  0.75000000  0.50000000  0.50000000 
  0.75000000  0.50000000  0.75000000 
  0.75000000  0.75000000  0.00000000 
  0.75000000  0.75000000  0.25000000 
  0.75000000  0.75000000  0.50000000 
  0.75000000  0.75000000  0.75000000 
end kpoints
