&inputpp 
   outdir = './'
   prefix = 'di'
   seedname = 'diamond'
   spin_component = 'none'
   write_unk = .true.
   write_am = .true.
/
