&inputpp 
   outdir         = './'
   prefix         = 'cnt+si'
   seedname       = 'cnt+si'
   write_mmn      = .true.
   write_amn      = .true.
   write_unk      = .true.
   reduce_unk     = .true.
/

