num_proj    =  7
num_wann    =  4

begin unit_cell_cart
bohr
-5.367  0.000  5.367
 0.000  5.367  5.367
-5.367  5.367  0.000
end unit_cell_cart

begin atoms_frac
Ga  0.00 0.00 0.00
As  0.25 0.25 0.25
end atoms_frac

begin projections
Ga:sp3
As:sp3
end projections

mp_grid : 2 2 2
begin kpoints
0.0 0.0 0.0
0.0 0.0 0.5
0.0 0.5 0.0
0.0 0.5 0.5
0.5 0.0 0.0
0.5 0.0 0.5
0.5 0.5 0.0
0.5 0.5 0.5
end kpoints
