&inputpp
    outdir='./work'
    prefix='Cu',
    seedname = 'Cu'
    write_unk = .true.
    write_dmb = .true.  ! additional input for symmetry-adapted mode 
   ! read_sym = .true.  
/
