num_bands         =   12
num_wann          =   8 

num_iter          = 1000
num_print_cycles  = 40
conv_tol          = 1.e-10
conv_window       = 3

dis_win_max       = 24.0d0
dis_froz_max      =  14.0d0
dis_num_iter      =  1200
dis_mix_ratio     = 1.d0

exclude_bands :  1-5 

begin unit_cell_cart
bohr
-5.34 0.0 5.34
0.0 5.34 5.34
-5.34 5.34 0.0
end unit_cell_cart

begin projections
f=0.25,0.25,0.25 : s
f=0.25,0.25,0.25 : p
f= 0.0, 0.0, 0.0 : p
f= 0.0, 0.0, 0.0 : s
end projections

begin atoms_frac
Ga 0.00  0.00  0.00
As 0.25  0.25  0.25
end atoms_frac

mp_grid : 4 4 4    

begin kpoints
0.0 0.0 0.0
0.0 0.0 0.25
0.0 0.0 0.5
0.0 0.0 0.75
0.0 0.25 0.0
0.0 0.25 0.25
0.0 0.25 0.5
0.0 0.25 0.75
0.0 0.5 0.0
0.0 0.5 0.25
0.0 0.5 0.5
0.0 0.5 0.75
0.0 0.75 0.0
0.0 0.75 0.25
0.0 0.75 0.5
0.0 0.75 0.75
0.25 0.0 0.0
0.25 0.0 0.25
0.25 0.0 0.5
0.25 0.0 0.75
0.25 0.25 0.0
0.25 0.25 0.25
0.25 0.25 0.5
0.25 0.25 0.75
0.25 0.5 0.0
0.25 0.5 0.25
0.25 0.5 0.5
0.25 0.5 0.75
0.25 0.75 0.0
0.25 0.75 0.25
0.25 0.75 0.5
0.25 0.75 0.75
0.5 0.0 0.0
0.5 0.0 0.25
0.5 0.0 0.5
0.5 0.0 0.75
0.5 0.25 0.0
0.5 0.25 0.25
0.5 0.25 0.5
0.5 0.25 0.75
0.5 0.5 0.0
0.5 0.5 0.25
0.5 0.5 0.5
0.5 0.5 0.75
0.5 0.75 0.0
0.5 0.75 0.25
0.5 0.75 0.5
0.5 0.75 0.75
0.75 0.0 0.0
0.75 0.0 0.25
0.75 0.0 0.5
0.75 0.0 0.75
0.75 0.25 0.0
0.75 0.25 0.25
0.75 0.25 0.5
0.75 0.25 0.75
0.75 0.5 0.0
0.75 0.5 0.25
0.75 0.5 0.5
0.75 0.5 0.75
0.75 0.75 0.0
0.75 0.75 0.25
0.75 0.75 0.5
0.75 0.75 0.75
end kpoints
