
&inputpp
   outdir = './'
   prefix = 'cu'
   seedname = 'copper'
   spin_component = 'none'
/

