    Num_Bands         =   12           !! no default!!
    num_wann          =   8

    dis_win_min       = -8.0d0       
    dis_win_max       = 17.0d0
    dis_froz_min      = -8.0d0
    dis_froz_max      =  6.4d0
    dis_num_iter      =  200
    Dis_mix_ratio     =  0.5d0

    num_iter          = 100

    MP_Grid           = 4 4 4

    postproc_Setup    = F
    bands_plot        = True

    iprint            = 2

Begin Atoms_Frac
Si  -0.25   0.75  -0.25
Si   0.00   0.00   0.00 
End Atoms_Frac
    
Begin Projections     
  Si : sp3 
End Projections       
    
Begin Kpoint_Path
L 0.50000 0.50000 0.50000 G 0.00000 0.00000 0.00000
G 0.00000 0.00000 0.00000 X 0.50000 0.00000 0.50000
X 0.50000 0.00000 0.50000 X 0.62500 0.25000 0.62500
K 0.62500 0.25000 0.62500 G 0.00000 0.00000 0.00000
End Kpoint_Path


Begin Unit_Cell_Cart
-2.698803663253785 0.0 2.698803663253785
 0.0 2.698803663253785 2.698803663253785
-2.698803663253785 2.698803663253785 0.0
End Unit_Cell_Cart


Begin Kpoints
0.0000  0.0000   0.0000   
0.0000  0.2500     0.0000   
0.0000  0.5000     0.0000   
0.0000  0.7500     0.0000   
0.2500  0.0000     0.0000   
0.2500  0.2500     0.0000   
0.2500  0.5000     0.0000   
0.2500  0.7500     0.0000   
0.5000  0.0000     0.0000   
0.5000  0.2500     0.0000   
0.5000  0.5000     0.0000   
0.5000  0.7500     0.0000   
0.7500  0.0000     0.0000   
0.7500  0.2500     0.0000   
0.7500  0.5000     0.0000   
0.7500  0.7500     0.0000   
0.0000  0.0000   0.2500   
0.0000  0.2500   0.2500   
0.0000  0.5000   0.2500   
0.0000  0.7500   0.2500   
0.2500  0.0000   0.2500   
0.2500  0.2500   0.2500   
0.2500  0.5000   0.2500   
0.2500  0.7500   0.2500   
0.5000  0.0000   0.2500   
0.5000  0.2500   0.2500   
0.5000  0.5000   0.2500   
0.5000  0.7500   0.2500   
0.7500  0.0000   0.2500   
0.7500  0.2500   0.2500   
0.7500  0.5000   0.2500   
0.7500  0.7500   0.2500   
0.0000  0.0000   0.5000   
0.0000  0.2500   0.5000   
0.0000  0.5000   0.5000   
0.0000  0.7500   0.5000   
0.2500  0.0000   0.5000   
0.2500  0.2500   0.5000   
0.2500  0.5000   0.5000   
0.2500  0.7500   0.5000   
0.5000  0.0000   0.5000   
0.5000  0.2500   0.5000   
0.5000  0.5000   0.5000   
0.5000  0.7500   0.5000   
0.7500  0.0000   0.5000   
0.7500  0.2500   0.5000   
0.7500  0.5000   0.5000   
0.7500  0.7500   0.5000   
0.0000  0.0000   0.7500   
0.0000  0.2500   0.7500   
0.0000  0.5000   0.7500   
0.0000  0.7500   0.7500   
0.2500  0.0000   0.7500   
0.2500  0.2500   0.7500   
0.2500  0.5000   0.7500   
0.2500  0.7500   0.7500   
0.5000  0.0000   0.7500   
0.5000  0.2500   0.7500   
0.5000  0.5000   0.7500   
0.5000  0.7500   0.7500   
0.7500  0.0000   0.7500   
0.7500  0.2500   0.7500   
0.7500  0.5000   0.7500   
0.7500  0.7500   0.7500   
End Kpoints


