 conv_tol = 1d-12
 conv_window = 5
 num_iter = 400
 iprint = 2

Begin Projections
 Mn:l=2,mr=1,4
End Projections

 dis_conv_tol = 1d-12
 dis_conv_window = 9
 dis_num_iter = 200

 num_wann = 2
 num_bands = 5
 exclude_bands : 1-20,26-40

 dis_win_min = 12.1
 dis_win_max = 17.6
 dis_spheres_first_wann = 4
 dis_spheres_num = 2

Begin dis_spheres
  0.5  0.0  0.0  0.3
  0.0  0.5  0.0  0.3
End dis_spheres


Begin Unit_Cell_Cart
Ang
   3.6460309631     0.0000000000     0.0000000000
   0.0000000000     3.6460309631     0.0000000000
   0.0000000000     0.0000000000     4.0470943691
End Unit_Cell_Cart

Begin Atoms_Cart
Ang
Sr      0.0000000000   0.0000000000   0.0000000000
Mn      1.8230154816   1.8230154816   2.0235471845
O       0.0000000000   1.8230154816   2.0235471845
O       1.8230154816   0.0000000000   2.0235471845
O       1.8230154816   1.8230154816   0.0000000000
End Atoms_Cart

mp_grid = 6 6 6

Begin Kpoints
    0.0000000000000000    0.0000000000000000    0.0000000000000000
    0.0000000000000000    0.0000000000000000    0.1666666666666667
    0.0000000000000000    0.0000000000000000    0.3333333333333333
    0.0000000000000000    0.0000000000000000    0.5000000000000000
    0.0000000000000000    0.0000000000000000    0.6666666666666666
    0.0000000000000000    0.0000000000000000    0.8333333333333334
    0.0000000000000000    0.1666666666666667    0.0000000000000000
    0.0000000000000000    0.1666666666666667    0.1666666666666667
    0.0000000000000000    0.1666666666666667    0.3333333333333333
    0.0000000000000000    0.1666666666666667    0.5000000000000000
    0.0000000000000000    0.1666666666666667    0.6666666666666666
    0.0000000000000000    0.1666666666666667    0.8333333333333334
    0.0000000000000000    0.3333333333333333    0.0000000000000000
    0.0000000000000000    0.3333333333333333    0.1666666666666667
    0.0000000000000000    0.3333333333333333    0.3333333333333333
    0.0000000000000000    0.3333333333333333    0.5000000000000000
    0.0000000000000000    0.3333333333333333    0.6666666666666666
    0.0000000000000000    0.3333333333333333    0.8333333333333334
    0.0000000000000000    0.5000000000000000    0.0000000000000000
    0.0000000000000000    0.5000000000000000    0.1666666666666667
    0.0000000000000000    0.5000000000000000    0.3333333333333333
    0.0000000000000000    0.5000000000000000    0.5000000000000000
    0.0000000000000000    0.5000000000000000    0.6666666666666666
    0.0000000000000000    0.5000000000000000    0.8333333333333334
    0.0000000000000000    0.6666666666666666    0.0000000000000000
    0.0000000000000000    0.6666666666666666    0.1666666666666667
    0.0000000000000000    0.6666666666666666    0.3333333333333333
    0.0000000000000000    0.6666666666666666    0.5000000000000000
    0.0000000000000000    0.6666666666666666    0.6666666666666666
    0.0000000000000000    0.6666666666666666    0.8333333333333334
    0.0000000000000000    0.8333333333333334    0.0000000000000000
    0.0000000000000000    0.8333333333333334    0.1666666666666667
    0.0000000000000000    0.8333333333333334    0.3333333333333333
    0.0000000000000000    0.8333333333333334    0.5000000000000000
    0.0000000000000000    0.8333333333333334    0.6666666666666666
    0.0000000000000000    0.8333333333333334    0.8333333333333334
    0.1666666666666667    0.0000000000000000    0.0000000000000000
    0.1666666666666667    0.0000000000000000    0.1666666666666667
    0.1666666666666667    0.0000000000000000    0.3333333333333333
    0.1666666666666667    0.0000000000000000    0.5000000000000000
    0.1666666666666667    0.0000000000000000    0.6666666666666666
    0.1666666666666667    0.0000000000000000    0.8333333333333334
    0.1666666666666667    0.1666666666666667    0.0000000000000000
    0.1666666666666667    0.1666666666666667    0.1666666666666667
    0.1666666666666667    0.1666666666666667    0.3333333333333333
    0.1666666666666667    0.1666666666666667    0.5000000000000000
    0.1666666666666667    0.1666666666666667    0.6666666666666666
    0.1666666666666667    0.1666666666666667    0.8333333333333334
    0.1666666666666667    0.3333333333333333    0.0000000000000000
    0.1666666666666667    0.3333333333333333    0.1666666666666667
    0.1666666666666667    0.3333333333333333    0.3333333333333333
    0.1666666666666667    0.3333333333333333    0.5000000000000000
    0.1666666666666667    0.3333333333333333    0.6666666666666666
    0.1666666666666667    0.3333333333333333    0.8333333333333334
    0.1666666666666667    0.5000000000000000    0.0000000000000000
    0.1666666666666667    0.5000000000000000    0.1666666666666667
    0.1666666666666667    0.5000000000000000    0.3333333333333333
    0.1666666666666667    0.5000000000000000    0.5000000000000000
    0.1666666666666667    0.5000000000000000    0.6666666666666666
    0.1666666666666667    0.5000000000000000    0.8333333333333334
    0.1666666666666667    0.6666666666666666    0.0000000000000000
    0.1666666666666667    0.6666666666666666    0.1666666666666667
    0.1666666666666667    0.6666666666666666    0.3333333333333333
    0.1666666666666667    0.6666666666666666    0.5000000000000000
    0.1666666666666667    0.6666666666666666    0.6666666666666666
    0.1666666666666667    0.6666666666666666    0.8333333333333334
    0.1666666666666667    0.8333333333333334    0.0000000000000000
    0.1666666666666667    0.8333333333333334    0.1666666666666667
    0.1666666666666667    0.8333333333333334    0.3333333333333333
    0.1666666666666667    0.8333333333333334    0.5000000000000000
    0.1666666666666667    0.8333333333333334    0.6666666666666666
    0.1666666666666667    0.8333333333333334    0.8333333333333334
    0.3333333333333333    0.0000000000000000    0.0000000000000000
    0.3333333333333333    0.0000000000000000    0.1666666666666667
    0.3333333333333333    0.0000000000000000    0.3333333333333333
    0.3333333333333333    0.0000000000000000    0.5000000000000000
    0.3333333333333333    0.0000000000000000    0.6666666666666666
    0.3333333333333333    0.0000000000000000    0.8333333333333334
    0.3333333333333333    0.1666666666666667    0.0000000000000000
    0.3333333333333333    0.1666666666666667    0.1666666666666667
    0.3333333333333333    0.1666666666666667    0.3333333333333333
    0.3333333333333333    0.1666666666666667    0.5000000000000000
    0.3333333333333333    0.1666666666666667    0.6666666666666666
    0.3333333333333333    0.1666666666666667    0.8333333333333334
    0.3333333333333333    0.3333333333333333    0.0000000000000000
    0.3333333333333333    0.3333333333333333    0.1666666666666667
    0.3333333333333333    0.3333333333333333    0.3333333333333333
    0.3333333333333333    0.3333333333333333    0.5000000000000000
    0.3333333333333333    0.3333333333333333    0.6666666666666666
    0.3333333333333333    0.3333333333333333    0.8333333333333334
    0.3333333333333333    0.5000000000000000    0.0000000000000000
    0.3333333333333333    0.5000000000000000    0.1666666666666667
    0.3333333333333333    0.5000000000000000    0.3333333333333333
    0.3333333333333333    0.5000000000000000    0.5000000000000000
    0.3333333333333333    0.5000000000000000    0.6666666666666666
    0.3333333333333333    0.5000000000000000    0.8333333333333334
    0.3333333333333333    0.6666666666666666    0.0000000000000000
    0.3333333333333333    0.6666666666666666    0.1666666666666667
    0.3333333333333333    0.6666666666666666    0.3333333333333333
    0.3333333333333333    0.6666666666666666    0.5000000000000000
    0.3333333333333333    0.6666666666666666    0.6666666666666666
    0.3333333333333333    0.6666666666666666    0.8333333333333334
    0.3333333333333333    0.8333333333333334    0.0000000000000000
    0.3333333333333333    0.8333333333333334    0.1666666666666667
    0.3333333333333333    0.8333333333333334    0.3333333333333333
    0.3333333333333333    0.8333333333333334    0.5000000000000000
    0.3333333333333333    0.8333333333333334    0.6666666666666666
    0.3333333333333333    0.8333333333333334    0.8333333333333334
    0.5000000000000000    0.0000000000000000    0.0000000000000000
    0.5000000000000000    0.0000000000000000    0.1666666666666667
    0.5000000000000000    0.0000000000000000    0.3333333333333333
    0.5000000000000000    0.0000000000000000    0.5000000000000000
    0.5000000000000000    0.0000000000000000    0.6666666666666666
    0.5000000000000000    0.0000000000000000    0.8333333333333334
    0.5000000000000000    0.1666666666666667    0.0000000000000000
    0.5000000000000000    0.1666666666666667    0.1666666666666667
    0.5000000000000000    0.1666666666666667    0.3333333333333333
    0.5000000000000000    0.1666666666666667    0.5000000000000000
    0.5000000000000000    0.1666666666666667    0.6666666666666666
    0.5000000000000000    0.1666666666666667    0.8333333333333334
    0.5000000000000000    0.3333333333333333    0.0000000000000000
    0.5000000000000000    0.3333333333333333    0.1666666666666667
    0.5000000000000000    0.3333333333333333    0.3333333333333333
    0.5000000000000000    0.3333333333333333    0.5000000000000000
    0.5000000000000000    0.3333333333333333    0.6666666666666666
    0.5000000000000000    0.3333333333333333    0.8333333333333334
    0.5000000000000000    0.5000000000000000    0.0000000000000000
    0.5000000000000000    0.5000000000000000    0.1666666666666667
    0.5000000000000000    0.5000000000000000    0.3333333333333333
    0.5000000000000000    0.5000000000000000    0.5000000000000000
    0.5000000000000000    0.5000000000000000    0.6666666666666666
    0.5000000000000000    0.5000000000000000    0.8333333333333334
    0.5000000000000000    0.6666666666666666    0.0000000000000000
    0.5000000000000000    0.6666666666666666    0.1666666666666667
    0.5000000000000000    0.6666666666666666    0.3333333333333333
    0.5000000000000000    0.6666666666666666    0.5000000000000000
    0.5000000000000000    0.6666666666666666    0.6666666666666666
    0.5000000000000000    0.6666666666666666    0.8333333333333334
    0.5000000000000000    0.8333333333333334    0.0000000000000000
    0.5000000000000000    0.8333333333333334    0.1666666666666667
    0.5000000000000000    0.8333333333333334    0.3333333333333333
    0.5000000000000000    0.8333333333333334    0.5000000000000000
    0.5000000000000000    0.8333333333333334    0.6666666666666666
    0.5000000000000000    0.8333333333333334    0.8333333333333334
    0.6666666666666666    0.0000000000000000    0.0000000000000000
    0.6666666666666666    0.0000000000000000    0.1666666666666667
    0.6666666666666666    0.0000000000000000    0.3333333333333333
    0.6666666666666666    0.0000000000000000    0.5000000000000000
    0.6666666666666666    0.0000000000000000    0.6666666666666666
    0.6666666666666666    0.0000000000000000    0.8333333333333334
    0.6666666666666666    0.1666666666666667    0.0000000000000000
    0.6666666666666666    0.1666666666666667    0.1666666666666667
    0.6666666666666666    0.1666666666666667    0.3333333333333333
    0.6666666666666666    0.1666666666666667    0.5000000000000000
    0.6666666666666666    0.1666666666666667    0.6666666666666666
    0.6666666666666666    0.1666666666666667    0.8333333333333334
    0.6666666666666666    0.3333333333333333    0.0000000000000000
    0.6666666666666666    0.3333333333333333    0.1666666666666667
    0.6666666666666666    0.3333333333333333    0.3333333333333333
    0.6666666666666666    0.3333333333333333    0.5000000000000000
    0.6666666666666666    0.3333333333333333    0.6666666666666666
    0.6666666666666666    0.3333333333333333    0.8333333333333334
    0.6666666666666666    0.5000000000000000    0.0000000000000000
    0.6666666666666666    0.5000000000000000    0.1666666666666667
    0.6666666666666666    0.5000000000000000    0.3333333333333333
    0.6666666666666666    0.5000000000000000    0.5000000000000000
    0.6666666666666666    0.5000000000000000    0.6666666666666666
    0.6666666666666666    0.5000000000000000    0.8333333333333334
    0.6666666666666666    0.6666666666666666    0.0000000000000000
    0.6666666666666666    0.6666666666666666    0.1666666666666667
    0.6666666666666666    0.6666666666666666    0.3333333333333333
    0.6666666666666666    0.6666666666666666    0.5000000000000000
    0.6666666666666666    0.6666666666666666    0.6666666666666666
    0.6666666666666666    0.6666666666666666    0.8333333333333334
    0.6666666666666666    0.8333333333333334    0.0000000000000000
    0.6666666666666666    0.8333333333333334    0.1666666666666667
    0.6666666666666666    0.8333333333333334    0.3333333333333333
    0.6666666666666666    0.8333333333333334    0.5000000000000000
    0.6666666666666666    0.8333333333333334    0.6666666666666666
    0.6666666666666666    0.8333333333333334    0.8333333333333334
    0.8333333333333334    0.0000000000000000    0.0000000000000000
    0.8333333333333334    0.0000000000000000    0.1666666666666667
    0.8333333333333334    0.0000000000000000    0.3333333333333333
    0.8333333333333334    0.0000000000000000    0.5000000000000000
    0.8333333333333334    0.0000000000000000    0.6666666666666666
    0.8333333333333334    0.0000000000000000    0.8333333333333334
    0.8333333333333334    0.1666666666666667    0.0000000000000000
    0.8333333333333334    0.1666666666666667    0.1666666666666667
    0.8333333333333334    0.1666666666666667    0.3333333333333333
    0.8333333333333334    0.1666666666666667    0.5000000000000000
    0.8333333333333334    0.1666666666666667    0.6666666666666666
    0.8333333333333334    0.1666666666666667    0.8333333333333334
    0.8333333333333334    0.3333333333333333    0.0000000000000000
    0.8333333333333334    0.3333333333333333    0.1666666666666667
    0.8333333333333334    0.3333333333333333    0.3333333333333333
    0.8333333333333334    0.3333333333333333    0.5000000000000000
    0.8333333333333334    0.3333333333333333    0.6666666666666666
    0.8333333333333334    0.3333333333333333    0.8333333333333334
    0.8333333333333334    0.5000000000000000    0.0000000000000000
    0.8333333333333334    0.5000000000000000    0.1666666666666667
    0.8333333333333334    0.5000000000000000    0.3333333333333333
    0.8333333333333334    0.5000000000000000    0.5000000000000000
    0.8333333333333334    0.5000000000000000    0.6666666666666666
    0.8333333333333334    0.5000000000000000    0.8333333333333334
    0.8333333333333334    0.6666666666666666    0.0000000000000000
    0.8333333333333334    0.6666666666666666    0.1666666666666667
    0.8333333333333334    0.6666666666666666    0.3333333333333333
    0.8333333333333334    0.6666666666666666    0.5000000000000000
    0.8333333333333334    0.6666666666666666    0.6666666666666666
    0.8333333333333334    0.6666666666666666    0.8333333333333334
    0.8333333333333334    0.8333333333333334    0.0000000000000000
    0.8333333333333334    0.8333333333333334    0.1666666666666667
    0.8333333333333334    0.8333333333333334    0.3333333333333333
    0.8333333333333334    0.8333333333333334    0.5000000000000000
    0.8333333333333334    0.8333333333333334    0.6666666666666666
    0.8333333333333334    0.8333333333333334    0.8333333333333334
End Kpoints


 write_hr = true
 bands_plot= true
 bands_num_points = 30
 begin kpoint_path
G       0.00000  0.00000  0.00000  M       0.50000  0.50000  0.00000
M       0.50000  0.50000  0.00000  X       0.50000  0.00000  0.00000
X       0.50000  0.00000  0.00000  G       0.00000  0.00000  0.00000
G       0.00000  0.00000  0.00000  Z       0.00000  0.00000  0.50000
Z       0.00000  0.00000  0.50000  A       0.50000  0.50000  0.50000
A       0.50000  0.50000  0.50000  R       0.50000  0.00000  0.50000
R       0.50000  0.00000  0.50000  X       0.50000  0.00000  0.00000
end kpoint_path
