 &CONTROL
   calculation          =  'nscf',
   outdir               =  './',
   prefix               =  'SrMnO3',
   pseudo_dir           =  '../../../pseudo/',
 /

 &SYSTEM
   celldm(1)            =  6.89,
   celldm(3)            =  1.11,
   degauss              =  0.02,
   ecutrho              =  300,
   ecutwfc              =  30,
   ibrav                =  6,
   nat                  =  5,
   nbnd                 =  40,
   nosym                =  .TRUE.,
   ntyp                 =  3,
   occupations          =  'smearing',
   smearing             =  'mp',
 /

 &ELECTRONS
   conv_thr             =  1.d-8,
 /

ATOMIC_SPECIES 
  Sr   87.62   Sr.pbe-nsp-van.UPF 
  Mn   54.938045   Mn.pbe-sp-van.UPF 
  O   15.9994   O.pbe-rrkjus.UPF 


ATOMIC_POSITIONS crystal
  Sr      0.000000000000000   0.000000000000000   0.000000000000000
  Mn      0.500000000000000   0.500000000000000   0.500000000000000
  O       0.000000000000000   0.500000000000000   0.500000000000000
  O       0.500000000000000   0.000000000000000   0.500000000000000
  O       0.500000000000000   0.500000000000000   0.000000000000000

K_POINTS crystal
  216 
  0.0000000000000000   0.0000000000000000   0.0000000000000000   1.00 
  0.0000000000000000   0.0000000000000000   0.1666666666666667   1.00 
  0.0000000000000000   0.0000000000000000   0.3333333333333333   1.00 
  0.0000000000000000   0.0000000000000000   0.5000000000000000   1.00 
  0.0000000000000000   0.0000000000000000   0.6666666666666666   1.00 
  0.0000000000000000   0.0000000000000000   0.8333333333333334   1.00 
  0.0000000000000000   0.1666666666666667   0.0000000000000000   1.00 
  0.0000000000000000   0.1666666666666667   0.1666666666666667   1.00 
  0.0000000000000000   0.1666666666666667   0.3333333333333333   1.00 
  0.0000000000000000   0.1666666666666667   0.5000000000000000   1.00 
  0.0000000000000000   0.1666666666666667   0.6666666666666666   1.00 
  0.0000000000000000   0.1666666666666667   0.8333333333333334   1.00 
  0.0000000000000000   0.3333333333333333   0.0000000000000000   1.00 
  0.0000000000000000   0.3333333333333333   0.1666666666666667   1.00 
  0.0000000000000000   0.3333333333333333   0.3333333333333333   1.00 
  0.0000000000000000   0.3333333333333333   0.5000000000000000   1.00 
  0.0000000000000000   0.3333333333333333   0.6666666666666666   1.00 
  0.0000000000000000   0.3333333333333333   0.8333333333333334   1.00 
  0.0000000000000000   0.5000000000000000   0.0000000000000000   1.00 
  0.0000000000000000   0.5000000000000000   0.1666666666666667   1.00 
  0.0000000000000000   0.5000000000000000   0.3333333333333333   1.00 
  0.0000000000000000   0.5000000000000000   0.5000000000000000   1.00 
  0.0000000000000000   0.5000000000000000   0.6666666666666666   1.00 
  0.0000000000000000   0.5000000000000000   0.8333333333333334   1.00 
  0.0000000000000000   0.6666666666666666   0.0000000000000000   1.00 
  0.0000000000000000   0.6666666666666666   0.1666666666666667   1.00 
  0.0000000000000000   0.6666666666666666   0.3333333333333333   1.00 
  0.0000000000000000   0.6666666666666666   0.5000000000000000   1.00 
  0.0000000000000000   0.6666666666666666   0.6666666666666666   1.00 
  0.0000000000000000   0.6666666666666666   0.8333333333333334   1.00 
  0.0000000000000000   0.8333333333333334   0.0000000000000000   1.00 
  0.0000000000000000   0.8333333333333334   0.1666666666666667   1.00 
  0.0000000000000000   0.8333333333333334   0.3333333333333333   1.00 
  0.0000000000000000   0.8333333333333334   0.5000000000000000   1.00 
  0.0000000000000000   0.8333333333333334   0.6666666666666666   1.00 
  0.0000000000000000   0.8333333333333334   0.8333333333333334   1.00 
  0.1666666666666667   0.0000000000000000   0.0000000000000000   1.00 
  0.1666666666666667   0.0000000000000000   0.1666666666666667   1.00 
  0.1666666666666667   0.0000000000000000   0.3333333333333333   1.00 
  0.1666666666666667   0.0000000000000000   0.5000000000000000   1.00 
  0.1666666666666667   0.0000000000000000   0.6666666666666666   1.00 
  0.1666666666666667   0.0000000000000000   0.8333333333333334   1.00 
  0.1666666666666667   0.1666666666666667   0.0000000000000000   1.00 
  0.1666666666666667   0.1666666666666667   0.1666666666666667   1.00 
  0.1666666666666667   0.1666666666666667   0.3333333333333333   1.00 
  0.1666666666666667   0.1666666666666667   0.5000000000000000   1.00 
  0.1666666666666667   0.1666666666666667   0.6666666666666666   1.00 
  0.1666666666666667   0.1666666666666667   0.8333333333333334   1.00 
  0.1666666666666667   0.3333333333333333   0.0000000000000000   1.00 
  0.1666666666666667   0.3333333333333333   0.1666666666666667   1.00 
  0.1666666666666667   0.3333333333333333   0.3333333333333333   1.00 
  0.1666666666666667   0.3333333333333333   0.5000000000000000   1.00 
  0.1666666666666667   0.3333333333333333   0.6666666666666666   1.00 
  0.1666666666666667   0.3333333333333333   0.8333333333333334   1.00 
  0.1666666666666667   0.5000000000000000   0.0000000000000000   1.00 
  0.1666666666666667   0.5000000000000000   0.1666666666666667   1.00 
  0.1666666666666667   0.5000000000000000   0.3333333333333333   1.00 
  0.1666666666666667   0.5000000000000000   0.5000000000000000   1.00 
  0.1666666666666667   0.5000000000000000   0.6666666666666666   1.00 
  0.1666666666666667   0.5000000000000000   0.8333333333333334   1.00 
  0.1666666666666667   0.6666666666666666   0.0000000000000000   1.00 
  0.1666666666666667   0.6666666666666666   0.1666666666666667   1.00 
  0.1666666666666667   0.6666666666666666   0.3333333333333333   1.00 
  0.1666666666666667   0.6666666666666666   0.5000000000000000   1.00 
  0.1666666666666667   0.6666666666666666   0.6666666666666666   1.00 
  0.1666666666666667   0.6666666666666666   0.8333333333333334   1.00 
  0.1666666666666667   0.8333333333333334   0.0000000000000000   1.00 
  0.1666666666666667   0.8333333333333334   0.1666666666666667   1.00 
  0.1666666666666667   0.8333333333333334   0.3333333333333333   1.00 
  0.1666666666666667   0.8333333333333334   0.5000000000000000   1.00 
  0.1666666666666667   0.8333333333333334   0.6666666666666666   1.00 
  0.1666666666666667   0.8333333333333334   0.8333333333333334   1.00 
  0.3333333333333333   0.0000000000000000   0.0000000000000000   1.00 
  0.3333333333333333   0.0000000000000000   0.1666666666666667   1.00 
  0.3333333333333333   0.0000000000000000   0.3333333333333333   1.00 
  0.3333333333333333   0.0000000000000000   0.5000000000000000   1.00 
  0.3333333333333333   0.0000000000000000   0.6666666666666666   1.00 
  0.3333333333333333   0.0000000000000000   0.8333333333333334   1.00 
  0.3333333333333333   0.1666666666666667   0.0000000000000000   1.00 
  0.3333333333333333   0.1666666666666667   0.1666666666666667   1.00 
  0.3333333333333333   0.1666666666666667   0.3333333333333333   1.00 
  0.3333333333333333   0.1666666666666667   0.5000000000000000   1.00 
  0.3333333333333333   0.1666666666666667   0.6666666666666666   1.00 
  0.3333333333333333   0.1666666666666667   0.8333333333333334   1.00 
  0.3333333333333333   0.3333333333333333   0.0000000000000000   1.00 
  0.3333333333333333   0.3333333333333333   0.1666666666666667   1.00 
  0.3333333333333333   0.3333333333333333   0.3333333333333333   1.00 
  0.3333333333333333   0.3333333333333333   0.5000000000000000   1.00 
  0.3333333333333333   0.3333333333333333   0.6666666666666666   1.00 
  0.3333333333333333   0.3333333333333333   0.8333333333333334   1.00 
  0.3333333333333333   0.5000000000000000   0.0000000000000000   1.00 
  0.3333333333333333   0.5000000000000000   0.1666666666666667   1.00 
  0.3333333333333333   0.5000000000000000   0.3333333333333333   1.00 
  0.3333333333333333   0.5000000000000000   0.5000000000000000   1.00 
  0.3333333333333333   0.5000000000000000   0.6666666666666666   1.00 
  0.3333333333333333   0.5000000000000000   0.8333333333333334   1.00 
  0.3333333333333333   0.6666666666666666   0.0000000000000000   1.00 
  0.3333333333333333   0.6666666666666666   0.1666666666666667   1.00 
  0.3333333333333333   0.6666666666666666   0.3333333333333333   1.00 
  0.3333333333333333   0.6666666666666666   0.5000000000000000   1.00 
  0.3333333333333333   0.6666666666666666   0.6666666666666666   1.00 
  0.3333333333333333   0.6666666666666666   0.8333333333333334   1.00 
  0.3333333333333333   0.8333333333333334   0.0000000000000000   1.00 
  0.3333333333333333   0.8333333333333334   0.1666666666666667   1.00 
  0.3333333333333333   0.8333333333333334   0.3333333333333333   1.00 
  0.3333333333333333   0.8333333333333334   0.5000000000000000   1.00 
  0.3333333333333333   0.8333333333333334   0.6666666666666666   1.00 
  0.3333333333333333   0.8333333333333334   0.8333333333333334   1.00 
  0.5000000000000000   0.0000000000000000   0.0000000000000000   1.00 
  0.5000000000000000   0.0000000000000000   0.1666666666666667   1.00 
  0.5000000000000000   0.0000000000000000   0.3333333333333333   1.00 
  0.5000000000000000   0.0000000000000000   0.5000000000000000   1.00 
  0.5000000000000000   0.0000000000000000   0.6666666666666666   1.00 
  0.5000000000000000   0.0000000000000000   0.8333333333333334   1.00 
  0.5000000000000000   0.1666666666666667   0.0000000000000000   1.00 
  0.5000000000000000   0.1666666666666667   0.1666666666666667   1.00 
  0.5000000000000000   0.1666666666666667   0.3333333333333333   1.00 
  0.5000000000000000   0.1666666666666667   0.5000000000000000   1.00 
  0.5000000000000000   0.1666666666666667   0.6666666666666666   1.00 
  0.5000000000000000   0.1666666666666667   0.8333333333333334   1.00 
  0.5000000000000000   0.3333333333333333   0.0000000000000000   1.00 
  0.5000000000000000   0.3333333333333333   0.1666666666666667   1.00 
  0.5000000000000000   0.3333333333333333   0.3333333333333333   1.00 
  0.5000000000000000   0.3333333333333333   0.5000000000000000   1.00 
  0.5000000000000000   0.3333333333333333   0.6666666666666666   1.00 
  0.5000000000000000   0.3333333333333333   0.8333333333333334   1.00 
  0.5000000000000000   0.5000000000000000   0.0000000000000000   1.00 
  0.5000000000000000   0.5000000000000000   0.1666666666666667   1.00 
  0.5000000000000000   0.5000000000000000   0.3333333333333333   1.00 
  0.5000000000000000   0.5000000000000000   0.5000000000000000   1.00 
  0.5000000000000000   0.5000000000000000   0.6666666666666666   1.00 
  0.5000000000000000   0.5000000000000000   0.8333333333333334   1.00 
  0.5000000000000000   0.6666666666666666   0.0000000000000000   1.00 
  0.5000000000000000   0.6666666666666666   0.1666666666666667   1.00 
  0.5000000000000000   0.6666666666666666   0.3333333333333333   1.00 
  0.5000000000000000   0.6666666666666666   0.5000000000000000   1.00 
  0.5000000000000000   0.6666666666666666   0.6666666666666666   1.00 
  0.5000000000000000   0.6666666666666666   0.8333333333333334   1.00 
  0.5000000000000000   0.8333333333333334   0.0000000000000000   1.00 
  0.5000000000000000   0.8333333333333334   0.1666666666666667   1.00 
  0.5000000000000000   0.8333333333333334   0.3333333333333333   1.00 
  0.5000000000000000   0.8333333333333334   0.5000000000000000   1.00 
  0.5000000000000000   0.8333333333333334   0.6666666666666666   1.00 
  0.5000000000000000   0.8333333333333334   0.8333333333333334   1.00 
  0.6666666666666666   0.0000000000000000   0.0000000000000000   1.00 
  0.6666666666666666   0.0000000000000000   0.1666666666666667   1.00 
  0.6666666666666666   0.0000000000000000   0.3333333333333333   1.00 
  0.6666666666666666   0.0000000000000000   0.5000000000000000   1.00 
  0.6666666666666666   0.0000000000000000   0.6666666666666666   1.00 
  0.6666666666666666   0.0000000000000000   0.8333333333333334   1.00 
  0.6666666666666666   0.1666666666666667   0.0000000000000000   1.00 
  0.6666666666666666   0.1666666666666667   0.1666666666666667   1.00 
  0.6666666666666666   0.1666666666666667   0.3333333333333333   1.00 
  0.6666666666666666   0.1666666666666667   0.5000000000000000   1.00 
  0.6666666666666666   0.1666666666666667   0.6666666666666666   1.00 
  0.6666666666666666   0.1666666666666667   0.8333333333333334   1.00 
  0.6666666666666666   0.3333333333333333   0.0000000000000000   1.00 
  0.6666666666666666   0.3333333333333333   0.1666666666666667   1.00 
  0.6666666666666666   0.3333333333333333   0.3333333333333333   1.00 
  0.6666666666666666   0.3333333333333333   0.5000000000000000   1.00 
  0.6666666666666666   0.3333333333333333   0.6666666666666666   1.00 
  0.6666666666666666   0.3333333333333333   0.8333333333333334   1.00 
  0.6666666666666666   0.5000000000000000   0.0000000000000000   1.00 
  0.6666666666666666   0.5000000000000000   0.1666666666666667   1.00 
  0.6666666666666666   0.5000000000000000   0.3333333333333333   1.00 
  0.6666666666666666   0.5000000000000000   0.5000000000000000   1.00 
  0.6666666666666666   0.5000000000000000   0.6666666666666666   1.00 
  0.6666666666666666   0.5000000000000000   0.8333333333333334   1.00 
  0.6666666666666666   0.6666666666666666   0.0000000000000000   1.00 
  0.6666666666666666   0.6666666666666666   0.1666666666666667   1.00 
  0.6666666666666666   0.6666666666666666   0.3333333333333333   1.00 
  0.6666666666666666   0.6666666666666666   0.5000000000000000   1.00 
  0.6666666666666666   0.6666666666666666   0.6666666666666666   1.00 
  0.6666666666666666   0.6666666666666666   0.8333333333333334   1.00 
  0.6666666666666666   0.8333333333333334   0.0000000000000000   1.00 
  0.6666666666666666   0.8333333333333334   0.1666666666666667   1.00 
  0.6666666666666666   0.8333333333333334   0.3333333333333333   1.00 
  0.6666666666666666   0.8333333333333334   0.5000000000000000   1.00 
  0.6666666666666666   0.8333333333333334   0.6666666666666666   1.00 
  0.6666666666666666   0.8333333333333334   0.8333333333333334   1.00 
  0.8333333333333334   0.0000000000000000   0.0000000000000000   1.00 
  0.8333333333333334   0.0000000000000000   0.1666666666666667   1.00 
  0.8333333333333334   0.0000000000000000   0.3333333333333333   1.00 
  0.8333333333333334   0.0000000000000000   0.5000000000000000   1.00 
  0.8333333333333334   0.0000000000000000   0.6666666666666666   1.00 
  0.8333333333333334   0.0000000000000000   0.8333333333333334   1.00 
  0.8333333333333334   0.1666666666666667   0.0000000000000000   1.00 
  0.8333333333333334   0.1666666666666667   0.1666666666666667   1.00 
  0.8333333333333334   0.1666666666666667   0.3333333333333333   1.00 
  0.8333333333333334   0.1666666666666667   0.5000000000000000   1.00 
  0.8333333333333334   0.1666666666666667   0.6666666666666666   1.00 
  0.8333333333333334   0.1666666666666667   0.8333333333333334   1.00 
  0.8333333333333334   0.3333333333333333   0.0000000000000000   1.00 
  0.8333333333333334   0.3333333333333333   0.1666666666666667   1.00 
  0.8333333333333334   0.3333333333333333   0.3333333333333333   1.00 
  0.8333333333333334   0.3333333333333333   0.5000000000000000   1.00 
  0.8333333333333334   0.3333333333333333   0.6666666666666666   1.00 
  0.8333333333333334   0.3333333333333333   0.8333333333333334   1.00 
  0.8333333333333334   0.5000000000000000   0.0000000000000000   1.00 
  0.8333333333333334   0.5000000000000000   0.1666666666666667   1.00 
  0.8333333333333334   0.5000000000000000   0.3333333333333333   1.00 
  0.8333333333333334   0.5000000000000000   0.5000000000000000   1.00 
  0.8333333333333334   0.5000000000000000   0.6666666666666666   1.00 
  0.8333333333333334   0.5000000000000000   0.8333333333333334   1.00 
  0.8333333333333334   0.6666666666666666   0.0000000000000000   1.00 
  0.8333333333333334   0.6666666666666666   0.1666666666666667   1.00 
  0.8333333333333334   0.6666666666666666   0.3333333333333333   1.00 
  0.8333333333333334   0.6666666666666666   0.5000000000000000   1.00 
  0.8333333333333334   0.6666666666666666   0.6666666666666666   1.00 
  0.8333333333333334   0.6666666666666666   0.8333333333333334   1.00 
  0.8333333333333334   0.8333333333333334   0.0000000000000000   1.00 
  0.8333333333333334   0.8333333333333334   0.1666666666666667   1.00 
  0.8333333333333334   0.8333333333333334   0.3333333333333333   1.00 
  0.8333333333333334   0.8333333333333334   0.5000000000000000   1.00 
  0.8333333333333334   0.8333333333333334   0.6666666666666666   1.00 
  0.8333333333333334   0.8333333333333334   0.8333333333333334   1.00 

