    num_dump_cycles =   100      
    num_wann        =   4 
    iprint = 3
    num_iter          = 100
mp_grid : 4 4 4
    bands_plot = .true.
    fermi_surface_plot = .true.

begin kpoint_path
L 0.50000 0.50000 0.50000 G 0.00000 0.00000 0.00000
G 0.00000 0.00000 0.00000 X 0.50000 0.00000 0.50000
X 0.50000 0.00000 0.50000 X 0.62500 0.25000 0.62500
K 0.62500 0.25000 0.62500 G 0.00000 0.00000 0.00000
end kpoint_path

begin unit_cell_cart
-1.613990   0.000000   1.613990
 0.000000   1.613990   1.613990
-1.613990   1.613990   0.000000
end unit_cell_cart

begin kpoints
0.0000  0.0000   0.0000
0.0000  0.2500     0.0000
0.0000  0.5000     0.0000
0.0000  0.7500     0.0000
0.2500  0.0000     0.0000
0.2500  0.2500     0.0000
0.2500  0.5000     0.0000
0.2500  0.7500     0.0000
0.5000  0.0000     0.0000
0.5000  0.2500     0.0000
0.5000  0.5000     0.0000
0.5000  0.7500     0.0000
0.7500  0.0000     0.0000
0.7500  0.2500     0.0000
0.7500  0.5000     0.0000
0.7500  0.7500     0.0000
0.0000  0.0000   0.2500
0.0000  0.2500   0.2500
0.0000  0.5000   0.2500
0.0000  0.7500   0.2500
0.2500  0.0000   0.2500
0.2500  0.2500   0.2500
0.2500  0.5000   0.2500
0.2500  0.7500   0.2500
0.5000  0.0000   0.2500
0.5000  0.2500   0.2500
0.5000  0.5000   0.2500
0.5000  0.7500   0.2500
0.7500  0.0000   0.2500
0.7500  0.2500   0.2500
0.7500  0.5000   0.2500
0.7500  0.7500   0.2500
0.0000  0.0000   0.5000
0.0000  0.2500   0.5000
0.0000  0.5000   0.5000
0.0000  0.7500   0.5000
0.2500  0.0000   0.5000
0.2500  0.2500   0.5000
0.2500  0.5000   0.5000
0.2500  0.7500   0.5000
0.5000  0.0000   0.5000
0.5000  0.2500   0.5000
0.5000  0.5000   0.5000
0.5000  0.7500   0.5000
0.7500  0.0000   0.5000
0.7500  0.2500   0.5000
0.7500  0.5000   0.5000
0.7500  0.7500   0.5000
0.0000  0.0000   0.7500
0.0000  0.2500   0.7500
0.0000  0.5000   0.7500
0.0000  0.7500   0.7500
0.2500  0.0000   0.7500
0.2500  0.2500   0.7500
0.2500  0.5000   0.7500
0.2500  0.7500   0.7500
0.5000  0.0000   0.7500
0.5000  0.2500   0.7500
0.5000  0.5000   0.7500
0.5000  0.7500   0.7500
0.7500  0.0000   0.7500
0.7500  0.2500   0.7500
0.7500  0.5000   0.7500
0.7500  0.7500   0.7500
end kpoints
