&control
 calculation = 'scf'
 prefix='Cu',
 tstress = .true.
 tprnfor = .true.
 pseudo_dir = '../../../pseudo/',
 outdir='./work/'
 disk_io='low'
 wf_collect=.true.
/
&system
 ibrav = 2,
 celldm(1) = 6.822,
 nat = 1,
 ntyp = 1,
 ecutwfc = 35.0,
 ecutrho = 150.0,
 occupations = 'smearing'
 smearing = 'm-p'
 degauss = 0.01
/
&electrons
 mixing_beta = 0.7
 conv_thr = 1.0d-8
/
ATOMIC_SPECIES
Cu  62.930 Cu.pbe-dn-kjpaw_psl.0.2.UPF
ATOMIC_POSITIONS {alat}
Cu 0.00 0.00 0.00
K_POINTS {automatic}
8 8 8 0 0 0
