&inputpp 
   outdir         = './'
   prefix         = 'sil'
   seedname       = 'silane'
   spin_component = 'none'
   write_mmn      = .true.
   write_amn      = .true.
   write_unk      = .false.
/
