!! Input file for example27 on the SCDM-k method to generate initial projections
!! entanglement case: erfc

! Valence + conduction bands
num_bands         =  12
num_wann          =   8
conv_tol          = 1.0d-10
conv_window       =    3
! No disentanglement
dis_num_iter      = 0
length_unit       =  bohr

! SCDM keywords
scdm_proj         = true
scdm_entanglement = erfc
scdm_mu           = 10
scdm_sigma        =  4

! SYSTEM
begin unit_cell_cart
 bohr
-5.10   0.00   5.10
 0.00   5.10   5.10
-5.10   5.10   0.00
end unit_cell_cart

begin atoms_frac
Si -0.25  0.75  -0.25
Si  0.00  0.00   0.00
end atoms_frac

! To plot the WF interpolated bandstructure
bands_plot       = .true.
bands_num_points = 200

begin kpoint_path
L 0.50000  0.50000 0.5000 G 0.00000  0.00000 0.0000
G 0.00000  0.00000 0.0000 X 0.50000  0.00000 0.5000
X 0.50000 -0.50000 0.0000 K 0.37500 -0.37500 0.0000 
K 0.37500 -0.37500 0.0000 G 0.00000  0.00000 0.0000
end kpoint_path

! To plot the WFs
! restart                =  plot
wannier_plot           =  true
wannier_plot_supercell =  3
wannier_plot_list      =  1-8

! KPOINTS
mp_grid 4 4 4

begin kpoints
  0.00000000  0.00000000  0.00000000 
  0.00000000  0.00000000  0.25000000 
  0.00000000  0.00000000  0.50000000 
  0.00000000  0.00000000  0.75000000 
  0.00000000  0.25000000  0.00000000 
  0.00000000  0.25000000  0.25000000 
  0.00000000  0.25000000  0.50000000 
  0.00000000  0.25000000  0.75000000 
  0.00000000  0.50000000  0.00000000 
  0.00000000  0.50000000  0.25000000 
  0.00000000  0.50000000  0.50000000 
  0.00000000  0.50000000  0.75000000 
  0.00000000  0.75000000  0.00000000 
  0.00000000  0.75000000  0.25000000 
  0.00000000  0.75000000  0.50000000 
  0.00000000  0.75000000  0.75000000 
  0.25000000  0.00000000  0.00000000 
  0.25000000  0.00000000  0.25000000 
  0.25000000  0.00000000  0.50000000 
  0.25000000  0.00000000  0.75000000 
  0.25000000  0.25000000  0.00000000 
  0.25000000  0.25000000  0.25000000 
  0.25000000  0.25000000  0.50000000 
  0.25000000  0.25000000  0.75000000 
  0.25000000  0.50000000  0.00000000 
  0.25000000  0.50000000  0.25000000 
  0.25000000  0.50000000  0.50000000 
  0.25000000  0.50000000  0.75000000 
  0.25000000  0.75000000  0.00000000 
  0.25000000  0.75000000  0.25000000 
  0.25000000  0.75000000  0.50000000 
  0.25000000  0.75000000  0.75000000 
  0.50000000  0.00000000  0.00000000 
  0.50000000  0.00000000  0.25000000 
  0.50000000  0.00000000  0.50000000 
  0.50000000  0.00000000  0.75000000 
  0.50000000  0.25000000  0.00000000 
  0.50000000  0.25000000  0.25000000 
  0.50000000  0.25000000  0.50000000 
  0.50000000  0.25000000  0.75000000 
  0.50000000  0.50000000  0.00000000 
  0.50000000  0.50000000  0.25000000 
  0.50000000  0.50000000  0.50000000 
  0.50000000  0.50000000  0.75000000 
  0.50000000  0.75000000  0.00000000 
  0.50000000  0.75000000  0.25000000 
  0.50000000  0.75000000  0.50000000 
  0.50000000  0.75000000  0.75000000 
  0.75000000  0.00000000  0.00000000 
  0.75000000  0.00000000  0.25000000 
  0.75000000  0.00000000  0.50000000 
  0.75000000  0.00000000  0.75000000 
  0.75000000  0.25000000  0.00000000 
  0.75000000  0.25000000  0.25000000 
  0.75000000  0.25000000  0.50000000 
  0.75000000  0.25000000  0.75000000 
  0.75000000  0.50000000  0.00000000 
  0.75000000  0.50000000  0.25000000 
  0.75000000  0.50000000  0.50000000 
  0.75000000  0.50000000  0.75000000 
  0.75000000  0.75000000  0.00000000 
  0.75000000  0.75000000  0.25000000 
  0.75000000  0.75000000  0.50000000 
  0.75000000  0.75000000  0.75000000 
end kpoints
