num_bands         =     4 
num_wann          =     4
conv_tol          = 1E-9
conv_window       = 3
num_iter          = 10000

exclude_bands     = 1-5,10-18

! Perform selective localization with constrained center
jprime = 1
constrain_centres = .true.
constrain_centres_tol = 1E-9

begin projections
f= 0.125, 0.125, 0.125: s
f= 0.125, 0.125, -.375: s
f= -.375, 0.125, 0.125: s
f= 0.125, -.375, 0.125: s
end projections

begin centre_constraints
1 0.25 0.25 0.25 
end centre_constraints

begin unit_cell_cart
bohr
-5.34 0.00 5.34
 0.00 5.34 5.34
-5.34 5.34 0.00
end unit_cell_cart

begin atoms_frac
Ga 0.00  0.00  0.00
As 0.25  0.25  0.25 
end atoms_frac

mp_grid           = 4 4 4

begin kpoints
0	0	0	0.015625 
0.25	0	0	0.015625 
0.5	0	0	0.015625 
0.75	0	0	0.015625 
0	0.25	0	0.015625 
0.25	0.25	0	0.015625 
0.5	0.25	0	0.015625 
0.75	0.25	0	0.015625 
0	0.5	0	0.015625 
0.25	0.5	0	0.015625 
0.5	0.5	0	0.015625 
0.75	0.5	0	0.015625 
0	0.75	0	0.015625 
0.25	0.75	0	0.015625 
0.5	0.75	0	0.015625 
0.75	0.75	0	0.015625 
0	0	0.25	0.015625 
0.25	0	0.25	0.015625 
0.5	0	0.25	0.015625 
0.75	0	0.25	0.015625 
0	0.25	0.25	0.015625 
0.25	0.25	0.25	0.015625 
0.5	0.25	0.25	0.015625 
0.75	0.25	0.25	0.015625 
0	0.5	0.25	0.015625 
0.25	0.5	0.25	0.015625 
0.5	0.5	0.25	0.015625 
0.75	0.5	0.25	0.015625 
0	0.75	0.25	0.015625 
0.25	0.75	0.25	0.015625 
0.5	0.75	0.25	0.015625 
0.75	0.75	0.25	0.015625 
0	0	0.5	0.015625 
0.25	0	0.5	0.015625 
0.5	0	0.5	0.015625 
0.75	0	0.5	0.015625 
0	0.25	0.5	0.015625 
0.25	0.25	0.5	0.015625 
0.5	0.25	0.5	0.015625 
0.75	0.25	0.5	0.015625 
0	0.5	0.5	0.015625 
0.25	0.5	0.5	0.015625 
0.5	0.5	0.5	0.015625 
0.75	0.5	0.5	0.015625 
0	0.75	0.5	0.015625 
0.25	0.75	0.5	0.015625 
0.5	0.75	0.5	0.015625 
0.75	0.75	0.5	0.015625 
0	0	0.75	0.015625 
0.25	0	0.75	0.015625 
0.5	0	0.75	0.015625 
0.75	0	0.75	0.015625 
0	0.25	0.75	0.015625 
0.25	0.25	0.75	0.015625 
0.5	0.25	0.75	0.015625 
0.75	0.25	0.75	0.015625 
0	0.5	0.75	0.015625 
0.25	0.5	0.75	0.015625 
0.5	0.5	0.75	0.015625 
0.75	0.5	0.75	0.015625 
0	0.75	0.75	0.015625 
0.25	0.75	0.75	0.015625 
0.5	0.75	0.75	0.015625 
0.75	0.75	0.75	0.015625 
end kpoints
