Silicon
 &control
    calculation        =  'nscf'
    prefix             =  'si'
    pseudo_dir         =  '../../../pseudo/'
    outdir             =  './'
    iprint             =   2
    verbosity          =  'high'
    wf_collect	       =  .true.
/
 &system
    ibrav              =    2
    celldm(1)          =   10.2
    nat                =    2
    ntyp               =    1
    ecutwfc            =   25.0
    nbnd               =   100
    force_symmorphic   =  .true.
/
 &electrons
    conv_thr           =   1.0d-12
    diagonalization    =  'cg'
    diago_full_acc     =  .true.
/
ATOMIC_SPECIES
 Si 28 Si_ONCV_PBE-1.0.upf
ATOMIC_POSITIONS {crystal}
Si  -0.25    0.75   -0.25
Si   0.00    0.00    0.00
K_POINTS {automatic}
8 8 8 0 0 0
