 &control
    calculation = 'nscf'
    restart_mode='from_scratch',
    prefix='GaAs',
    verbosity='high'
    pseudo_dir = '../../pseudo/',
    outdir='./'
    wf_collect = .true.
/
&system
 ibrav = 2,
 celldm(1) = 10.68,
 nat = 2,
 ntyp = 2,
 ecutwfc = 50.0,
 occupations = 'smearing'
 smearing = 'm-p'
 degauss = 0.01
 nbnd = 17
/
&electrons
 mixing_beta = 0.7
 conv_thr = 1.0d-8
/
ATOMIC_SPECIES
Ga  68.926  Ga.pbe-dn-kjpaw_psl.0.2.UPF
As  74.922  As.pbe-n-kjpaw_psl.0.2.UPF
ATOMIC_POSITIONS {crystal}
Ga 0.00 0.00 0.00
As 0.25 0.25 0.25
K_POINTS {crystal} 
1000
0.0 0.0 0.0 1.0
0.0 0.0 0.1 1.0
0.0 0.0 0.2 1.0
0.0 0.0 0.3 1.0
0.0 0.0 0.4 1.0
0.0 0.0 0.5 1.0
0.0 0.0 0.6 1.0
0.0 0.0 0.7 1.0
0.0 0.0 0.8 1.0
0.0 0.0 0.9 1.0
0.0 0.1 0.0 1.0
0.0 0.1 0.1 1.0
0.0 0.1 0.2 1.0
0.0 0.1 0.3 1.0
0.0 0.1 0.4 1.0
0.0 0.1 0.5 1.0
0.0 0.1 0.6 1.0
0.0 0.1 0.7 1.0
0.0 0.1 0.8 1.0
0.0 0.1 0.9 1.0
0.0 0.2 0.0 1.0
0.0 0.2 0.1 1.0
0.0 0.2 0.2 1.0
0.0 0.2 0.3 1.0
0.0 0.2 0.4 1.0
0.0 0.2 0.5 1.0
0.0 0.2 0.6 1.0
0.0 0.2 0.7 1.0
0.0 0.2 0.8 1.0
0.0 0.2 0.9 1.0
0.0 0.3 0.0 1.0
0.0 0.3 0.1 1.0
0.0 0.3 0.2 1.0
0.0 0.3 0.3 1.0
0.0 0.3 0.4 1.0
0.0 0.3 0.5 1.0
0.0 0.3 0.6 1.0
0.0 0.3 0.7 1.0
0.0 0.3 0.8 1.0
0.0 0.3 0.9 1.0
0.0 0.4 0.0 1.0
0.0 0.4 0.1 1.0
0.0 0.4 0.2 1.0
0.0 0.4 0.3 1.0
0.0 0.4 0.4 1.0
0.0 0.4 0.5 1.0
0.0 0.4 0.6 1.0
0.0 0.4 0.7 1.0
0.0 0.4 0.8 1.0
0.0 0.4 0.9 1.0
0.0 0.5 0.0 1.0
0.0 0.5 0.1 1.0
0.0 0.5 0.2 1.0
0.0 0.5 0.3 1.0
0.0 0.5 0.4 1.0
0.0 0.5 0.5 1.0
0.0 0.5 0.6 1.0
0.0 0.5 0.7 1.0
0.0 0.5 0.8 1.0
0.0 0.5 0.9 1.0
0.0 0.6 0.0 1.0
0.0 0.6 0.1 1.0
0.0 0.6 0.2 1.0
0.0 0.6 0.3 1.0
0.0 0.6 0.4 1.0
0.0 0.6 0.5 1.0
0.0 0.6 0.6 1.0
0.0 0.6 0.7 1.0
0.0 0.6 0.8 1.0
0.0 0.6 0.9 1.0
0.0 0.7 0.0 1.0
0.0 0.7 0.1 1.0
0.0 0.7 0.2 1.0
0.0 0.7 0.3 1.0
0.0 0.7 0.4 1.0
0.0 0.7 0.5 1.0
0.0 0.7 0.6 1.0
0.0 0.7 0.7 1.0
0.0 0.7 0.8 1.0
0.0 0.7 0.9 1.0
0.0 0.8 0.0 1.0
0.0 0.8 0.1 1.0
0.0 0.8 0.2 1.0
0.0 0.8 0.3 1.0
0.0 0.8 0.4 1.0
0.0 0.8 0.5 1.0
0.0 0.8 0.6 1.0
0.0 0.8 0.7 1.0
0.0 0.8 0.8 1.0
0.0 0.8 0.9 1.0
0.0 0.9 0.0 1.0
0.0 0.9 0.1 1.0
0.0 0.9 0.2 1.0
0.0 0.9 0.3 1.0
0.0 0.9 0.4 1.0
0.0 0.9 0.5 1.0
0.0 0.9 0.6 1.0
0.0 0.9 0.7 1.0
0.0 0.9 0.8 1.0
0.0 0.9 0.9 1.0
0.1 0.0 0.0 1.0
0.1 0.0 0.1 1.0
0.1 0.0 0.2 1.0
0.1 0.0 0.3 1.0
0.1 0.0 0.4 1.0
0.1 0.0 0.5 1.0
0.1 0.0 0.6 1.0
0.1 0.0 0.7 1.0
0.1 0.0 0.8 1.0
0.1 0.0 0.9 1.0
0.1 0.1 0.0 1.0
0.1 0.1 0.1 1.0
0.1 0.1 0.2 1.0
0.1 0.1 0.3 1.0
0.1 0.1 0.4 1.0
0.1 0.1 0.5 1.0
0.1 0.1 0.6 1.0
0.1 0.1 0.7 1.0
0.1 0.1 0.8 1.0
0.1 0.1 0.9 1.0
0.1 0.2 0.0 1.0
0.1 0.2 0.1 1.0
0.1 0.2 0.2 1.0
0.1 0.2 0.3 1.0
0.1 0.2 0.4 1.0
0.1 0.2 0.5 1.0
0.1 0.2 0.6 1.0
0.1 0.2 0.7 1.0
0.1 0.2 0.8 1.0
0.1 0.2 0.9 1.0
0.1 0.3 0.0 1.0
0.1 0.3 0.1 1.0
0.1 0.3 0.2 1.0
0.1 0.3 0.3 1.0
0.1 0.3 0.4 1.0
0.1 0.3 0.5 1.0
0.1 0.3 0.6 1.0
0.1 0.3 0.7 1.0
0.1 0.3 0.8 1.0
0.1 0.3 0.9 1.0
0.1 0.4 0.0 1.0
0.1 0.4 0.1 1.0
0.1 0.4 0.2 1.0
0.1 0.4 0.3 1.0
0.1 0.4 0.4 1.0
0.1 0.4 0.5 1.0
0.1 0.4 0.6 1.0
0.1 0.4 0.7 1.0
0.1 0.4 0.8 1.0
0.1 0.4 0.9 1.0
0.1 0.5 0.0 1.0
0.1 0.5 0.1 1.0
0.1 0.5 0.2 1.0
0.1 0.5 0.3 1.0
0.1 0.5 0.4 1.0
0.1 0.5 0.5 1.0
0.1 0.5 0.6 1.0
0.1 0.5 0.7 1.0
0.1 0.5 0.8 1.0
0.1 0.5 0.9 1.0
0.1 0.6 0.0 1.0
0.1 0.6 0.1 1.0
0.1 0.6 0.2 1.0
0.1 0.6 0.3 1.0
0.1 0.6 0.4 1.0
0.1 0.6 0.5 1.0
0.1 0.6 0.6 1.0
0.1 0.6 0.7 1.0
0.1 0.6 0.8 1.0
0.1 0.6 0.9 1.0
0.1 0.7 0.0 1.0
0.1 0.7 0.1 1.0
0.1 0.7 0.2 1.0
0.1 0.7 0.3 1.0
0.1 0.7 0.4 1.0
0.1 0.7 0.5 1.0
0.1 0.7 0.6 1.0
0.1 0.7 0.7 1.0
0.1 0.7 0.8 1.0
0.1 0.7 0.9 1.0
0.1 0.8 0.0 1.0
0.1 0.8 0.1 1.0
0.1 0.8 0.2 1.0
0.1 0.8 0.3 1.0
0.1 0.8 0.4 1.0
0.1 0.8 0.5 1.0
0.1 0.8 0.6 1.0
0.1 0.8 0.7 1.0
0.1 0.8 0.8 1.0
0.1 0.8 0.9 1.0
0.1 0.9 0.0 1.0
0.1 0.9 0.1 1.0
0.1 0.9 0.2 1.0
0.1 0.9 0.3 1.0
0.1 0.9 0.4 1.0
0.1 0.9 0.5 1.0
0.1 0.9 0.6 1.0
0.1 0.9 0.7 1.0
0.1 0.9 0.8 1.0
0.1 0.9 0.9 1.0
0.2 0.0 0.0 1.0
0.2 0.0 0.1 1.0
0.2 0.0 0.2 1.0
0.2 0.0 0.3 1.0
0.2 0.0 0.4 1.0
0.2 0.0 0.5 1.0
0.2 0.0 0.6 1.0
0.2 0.0 0.7 1.0
0.2 0.0 0.8 1.0
0.2 0.0 0.9 1.0
0.2 0.1 0.0 1.0
0.2 0.1 0.1 1.0
0.2 0.1 0.2 1.0
0.2 0.1 0.3 1.0
0.2 0.1 0.4 1.0
0.2 0.1 0.5 1.0
0.2 0.1 0.6 1.0
0.2 0.1 0.7 1.0
0.2 0.1 0.8 1.0
0.2 0.1 0.9 1.0
0.2 0.2 0.0 1.0
0.2 0.2 0.1 1.0
0.2 0.2 0.2 1.0
0.2 0.2 0.3 1.0
0.2 0.2 0.4 1.0
0.2 0.2 0.5 1.0
0.2 0.2 0.6 1.0
0.2 0.2 0.7 1.0
0.2 0.2 0.8 1.0
0.2 0.2 0.9 1.0
0.2 0.3 0.0 1.0
0.2 0.3 0.1 1.0
0.2 0.3 0.2 1.0
0.2 0.3 0.3 1.0
0.2 0.3 0.4 1.0
0.2 0.3 0.5 1.0
0.2 0.3 0.6 1.0
0.2 0.3 0.7 1.0
0.2 0.3 0.8 1.0
0.2 0.3 0.9 1.0
0.2 0.4 0.0 1.0
0.2 0.4 0.1 1.0
0.2 0.4 0.2 1.0
0.2 0.4 0.3 1.0
0.2 0.4 0.4 1.0
0.2 0.4 0.5 1.0
0.2 0.4 0.6 1.0
0.2 0.4 0.7 1.0
0.2 0.4 0.8 1.0
0.2 0.4 0.9 1.0
0.2 0.5 0.0 1.0
0.2 0.5 0.1 1.0
0.2 0.5 0.2 1.0
0.2 0.5 0.3 1.0
0.2 0.5 0.4 1.0
0.2 0.5 0.5 1.0
0.2 0.5 0.6 1.0
0.2 0.5 0.7 1.0
0.2 0.5 0.8 1.0
0.2 0.5 0.9 1.0
0.2 0.6 0.0 1.0
0.2 0.6 0.1 1.0
0.2 0.6 0.2 1.0
0.2 0.6 0.3 1.0
0.2 0.6 0.4 1.0
0.2 0.6 0.5 1.0
0.2 0.6 0.6 1.0
0.2 0.6 0.7 1.0
0.2 0.6 0.8 1.0
0.2 0.6 0.9 1.0
0.2 0.7 0.0 1.0
0.2 0.7 0.1 1.0
0.2 0.7 0.2 1.0
0.2 0.7 0.3 1.0
0.2 0.7 0.4 1.0
0.2 0.7 0.5 1.0
0.2 0.7 0.6 1.0
0.2 0.7 0.7 1.0
0.2 0.7 0.8 1.0
0.2 0.7 0.9 1.0
0.2 0.8 0.0 1.0
0.2 0.8 0.1 1.0
0.2 0.8 0.2 1.0
0.2 0.8 0.3 1.0
0.2 0.8 0.4 1.0
0.2 0.8 0.5 1.0
0.2 0.8 0.6 1.0
0.2 0.8 0.7 1.0
0.2 0.8 0.8 1.0
0.2 0.8 0.9 1.0
0.2 0.9 0.0 1.0
0.2 0.9 0.1 1.0
0.2 0.9 0.2 1.0
0.2 0.9 0.3 1.0
0.2 0.9 0.4 1.0
0.2 0.9 0.5 1.0
0.2 0.9 0.6 1.0
0.2 0.9 0.7 1.0
0.2 0.9 0.8 1.0
0.2 0.9 0.9 1.0
0.3 0.0 0.0 1.0
0.3 0.0 0.1 1.0
0.3 0.0 0.2 1.0
0.3 0.0 0.3 1.0
0.3 0.0 0.4 1.0
0.3 0.0 0.5 1.0
0.3 0.0 0.6 1.0
0.3 0.0 0.7 1.0
0.3 0.0 0.8 1.0
0.3 0.0 0.9 1.0
0.3 0.1 0.0 1.0
0.3 0.1 0.1 1.0
0.3 0.1 0.2 1.0
0.3 0.1 0.3 1.0
0.3 0.1 0.4 1.0
0.3 0.1 0.5 1.0
0.3 0.1 0.6 1.0
0.3 0.1 0.7 1.0
0.3 0.1 0.8 1.0
0.3 0.1 0.9 1.0
0.3 0.2 0.0 1.0
0.3 0.2 0.1 1.0
0.3 0.2 0.2 1.0
0.3 0.2 0.3 1.0
0.3 0.2 0.4 1.0
0.3 0.2 0.5 1.0
0.3 0.2 0.6 1.0
0.3 0.2 0.7 1.0
0.3 0.2 0.8 1.0
0.3 0.2 0.9 1.0
0.3 0.3 0.0 1.0
0.3 0.3 0.1 1.0
0.3 0.3 0.2 1.0
0.3 0.3 0.3 1.0
0.3 0.3 0.4 1.0
0.3 0.3 0.5 1.0
0.3 0.3 0.6 1.0
0.3 0.3 0.7 1.0
0.3 0.3 0.8 1.0
0.3 0.3 0.9 1.0
0.3 0.4 0.0 1.0
0.3 0.4 0.1 1.0
0.3 0.4 0.2 1.0
0.3 0.4 0.3 1.0
0.3 0.4 0.4 1.0
0.3 0.4 0.5 1.0
0.3 0.4 0.6 1.0
0.3 0.4 0.7 1.0
0.3 0.4 0.8 1.0
0.3 0.4 0.9 1.0
0.3 0.5 0.0 1.0
0.3 0.5 0.1 1.0
0.3 0.5 0.2 1.0
0.3 0.5 0.3 1.0
0.3 0.5 0.4 1.0
0.3 0.5 0.5 1.0
0.3 0.5 0.6 1.0
0.3 0.5 0.7 1.0
0.3 0.5 0.8 1.0
0.3 0.5 0.9 1.0
0.3 0.6 0.0 1.0
0.3 0.6 0.1 1.0
0.3 0.6 0.2 1.0
0.3 0.6 0.3 1.0
0.3 0.6 0.4 1.0
0.3 0.6 0.5 1.0
0.3 0.6 0.6 1.0
0.3 0.6 0.7 1.0
0.3 0.6 0.8 1.0
0.3 0.6 0.9 1.0
0.3 0.7 0.0 1.0
0.3 0.7 0.1 1.0
0.3 0.7 0.2 1.0
0.3 0.7 0.3 1.0
0.3 0.7 0.4 1.0
0.3 0.7 0.5 1.0
0.3 0.7 0.6 1.0
0.3 0.7 0.7 1.0
0.3 0.7 0.8 1.0
0.3 0.7 0.9 1.0
0.3 0.8 0.0 1.0
0.3 0.8 0.1 1.0
0.3 0.8 0.2 1.0
0.3 0.8 0.3 1.0
0.3 0.8 0.4 1.0
0.3 0.8 0.5 1.0
0.3 0.8 0.6 1.0
0.3 0.8 0.7 1.0
0.3 0.8 0.8 1.0
0.3 0.8 0.9 1.0
0.3 0.9 0.0 1.0
0.3 0.9 0.1 1.0
0.3 0.9 0.2 1.0
0.3 0.9 0.3 1.0
0.3 0.9 0.4 1.0
0.3 0.9 0.5 1.0
0.3 0.9 0.6 1.0
0.3 0.9 0.7 1.0
0.3 0.9 0.8 1.0
0.3 0.9 0.9 1.0
0.4 0.0 0.0 1.0
0.4 0.0 0.1 1.0
0.4 0.0 0.2 1.0
0.4 0.0 0.3 1.0
0.4 0.0 0.4 1.0
0.4 0.0 0.5 1.0
0.4 0.0 0.6 1.0
0.4 0.0 0.7 1.0
0.4 0.0 0.8 1.0
0.4 0.0 0.9 1.0
0.4 0.1 0.0 1.0
0.4 0.1 0.1 1.0
0.4 0.1 0.2 1.0
0.4 0.1 0.3 1.0
0.4 0.1 0.4 1.0
0.4 0.1 0.5 1.0
0.4 0.1 0.6 1.0
0.4 0.1 0.7 1.0
0.4 0.1 0.8 1.0
0.4 0.1 0.9 1.0
0.4 0.2 0.0 1.0
0.4 0.2 0.1 1.0
0.4 0.2 0.2 1.0
0.4 0.2 0.3 1.0
0.4 0.2 0.4 1.0
0.4 0.2 0.5 1.0
0.4 0.2 0.6 1.0
0.4 0.2 0.7 1.0
0.4 0.2 0.8 1.0
0.4 0.2 0.9 1.0
0.4 0.3 0.0 1.0
0.4 0.3 0.1 1.0
0.4 0.3 0.2 1.0
0.4 0.3 0.3 1.0
0.4 0.3 0.4 1.0
0.4 0.3 0.5 1.0
0.4 0.3 0.6 1.0
0.4 0.3 0.7 1.0
0.4 0.3 0.8 1.0
0.4 0.3 0.9 1.0
0.4 0.4 0.0 1.0
0.4 0.4 0.1 1.0
0.4 0.4 0.2 1.0
0.4 0.4 0.3 1.0
0.4 0.4 0.4 1.0
0.4 0.4 0.5 1.0
0.4 0.4 0.6 1.0
0.4 0.4 0.7 1.0
0.4 0.4 0.8 1.0
0.4 0.4 0.9 1.0
0.4 0.5 0.0 1.0
0.4 0.5 0.1 1.0
0.4 0.5 0.2 1.0
0.4 0.5 0.3 1.0
0.4 0.5 0.4 1.0
0.4 0.5 0.5 1.0
0.4 0.5 0.6 1.0
0.4 0.5 0.7 1.0
0.4 0.5 0.8 1.0
0.4 0.5 0.9 1.0
0.4 0.6 0.0 1.0
0.4 0.6 0.1 1.0
0.4 0.6 0.2 1.0
0.4 0.6 0.3 1.0
0.4 0.6 0.4 1.0
0.4 0.6 0.5 1.0
0.4 0.6 0.6 1.0
0.4 0.6 0.7 1.0
0.4 0.6 0.8 1.0
0.4 0.6 0.9 1.0
0.4 0.7 0.0 1.0
0.4 0.7 0.1 1.0
0.4 0.7 0.2 1.0
0.4 0.7 0.3 1.0
0.4 0.7 0.4 1.0
0.4 0.7 0.5 1.0
0.4 0.7 0.6 1.0
0.4 0.7 0.7 1.0
0.4 0.7 0.8 1.0
0.4 0.7 0.9 1.0
0.4 0.8 0.0 1.0
0.4 0.8 0.1 1.0
0.4 0.8 0.2 1.0
0.4 0.8 0.3 1.0
0.4 0.8 0.4 1.0
0.4 0.8 0.5 1.0
0.4 0.8 0.6 1.0
0.4 0.8 0.7 1.0
0.4 0.8 0.8 1.0
0.4 0.8 0.9 1.0
0.4 0.9 0.0 1.0
0.4 0.9 0.1 1.0
0.4 0.9 0.2 1.0
0.4 0.9 0.3 1.0
0.4 0.9 0.4 1.0
0.4 0.9 0.5 1.0
0.4 0.9 0.6 1.0
0.4 0.9 0.7 1.0
0.4 0.9 0.8 1.0
0.4 0.9 0.9 1.0
0.5 0.0 0.0 1.0
0.5 0.0 0.1 1.0
0.5 0.0 0.2 1.0
0.5 0.0 0.3 1.0
0.5 0.0 0.4 1.0
0.5 0.0 0.5 1.0
0.5 0.0 0.6 1.0
0.5 0.0 0.7 1.0
0.5 0.0 0.8 1.0
0.5 0.0 0.9 1.0
0.5 0.1 0.0 1.0
0.5 0.1 0.1 1.0
0.5 0.1 0.2 1.0
0.5 0.1 0.3 1.0
0.5 0.1 0.4 1.0
0.5 0.1 0.5 1.0
0.5 0.1 0.6 1.0
0.5 0.1 0.7 1.0
0.5 0.1 0.8 1.0
0.5 0.1 0.9 1.0
0.5 0.2 0.0 1.0
0.5 0.2 0.1 1.0
0.5 0.2 0.2 1.0
0.5 0.2 0.3 1.0
0.5 0.2 0.4 1.0
0.5 0.2 0.5 1.0
0.5 0.2 0.6 1.0
0.5 0.2 0.7 1.0
0.5 0.2 0.8 1.0
0.5 0.2 0.9 1.0
0.5 0.3 0.0 1.0
0.5 0.3 0.1 1.0
0.5 0.3 0.2 1.0
0.5 0.3 0.3 1.0
0.5 0.3 0.4 1.0
0.5 0.3 0.5 1.0
0.5 0.3 0.6 1.0
0.5 0.3 0.7 1.0
0.5 0.3 0.8 1.0
0.5 0.3 0.9 1.0
0.5 0.4 0.0 1.0
0.5 0.4 0.1 1.0
0.5 0.4 0.2 1.0
0.5 0.4 0.3 1.0
0.5 0.4 0.4 1.0
0.5 0.4 0.5 1.0
0.5 0.4 0.6 1.0
0.5 0.4 0.7 1.0
0.5 0.4 0.8 1.0
0.5 0.4 0.9 1.0
0.5 0.5 0.0 1.0
0.5 0.5 0.1 1.0
0.5 0.5 0.2 1.0
0.5 0.5 0.3 1.0
0.5 0.5 0.4 1.0
0.5 0.5 0.5 1.0
0.5 0.5 0.6 1.0
0.5 0.5 0.7 1.0
0.5 0.5 0.8 1.0
0.5 0.5 0.9 1.0
0.5 0.6 0.0 1.0
0.5 0.6 0.1 1.0
0.5 0.6 0.2 1.0
0.5 0.6 0.3 1.0
0.5 0.6 0.4 1.0
0.5 0.6 0.5 1.0
0.5 0.6 0.6 1.0
0.5 0.6 0.7 1.0
0.5 0.6 0.8 1.0
0.5 0.6 0.9 1.0
0.5 0.7 0.0 1.0
0.5 0.7 0.1 1.0
0.5 0.7 0.2 1.0
0.5 0.7 0.3 1.0
0.5 0.7 0.4 1.0
0.5 0.7 0.5 1.0
0.5 0.7 0.6 1.0
0.5 0.7 0.7 1.0
0.5 0.7 0.8 1.0
0.5 0.7 0.9 1.0
0.5 0.8 0.0 1.0
0.5 0.8 0.1 1.0
0.5 0.8 0.2 1.0
0.5 0.8 0.3 1.0
0.5 0.8 0.4 1.0
0.5 0.8 0.5 1.0
0.5 0.8 0.6 1.0
0.5 0.8 0.7 1.0
0.5 0.8 0.8 1.0
0.5 0.8 0.9 1.0
0.5 0.9 0.0 1.0
0.5 0.9 0.1 1.0
0.5 0.9 0.2 1.0
0.5 0.9 0.3 1.0
0.5 0.9 0.4 1.0
0.5 0.9 0.5 1.0
0.5 0.9 0.6 1.0
0.5 0.9 0.7 1.0
0.5 0.9 0.8 1.0
0.5 0.9 0.9 1.0
0.6 0.0 0.0 1.0
0.6 0.0 0.1 1.0
0.6 0.0 0.2 1.0
0.6 0.0 0.3 1.0
0.6 0.0 0.4 1.0
0.6 0.0 0.5 1.0
0.6 0.0 0.6 1.0
0.6 0.0 0.7 1.0
0.6 0.0 0.8 1.0
0.6 0.0 0.9 1.0
0.6 0.1 0.0 1.0
0.6 0.1 0.1 1.0
0.6 0.1 0.2 1.0
0.6 0.1 0.3 1.0
0.6 0.1 0.4 1.0
0.6 0.1 0.5 1.0
0.6 0.1 0.6 1.0
0.6 0.1 0.7 1.0
0.6 0.1 0.8 1.0
0.6 0.1 0.9 1.0
0.6 0.2 0.0 1.0
0.6 0.2 0.1 1.0
0.6 0.2 0.2 1.0
0.6 0.2 0.3 1.0
0.6 0.2 0.4 1.0
0.6 0.2 0.5 1.0
0.6 0.2 0.6 1.0
0.6 0.2 0.7 1.0
0.6 0.2 0.8 1.0
0.6 0.2 0.9 1.0
0.6 0.3 0.0 1.0
0.6 0.3 0.1 1.0
0.6 0.3 0.2 1.0
0.6 0.3 0.3 1.0
0.6 0.3 0.4 1.0
0.6 0.3 0.5 1.0
0.6 0.3 0.6 1.0
0.6 0.3 0.7 1.0
0.6 0.3 0.8 1.0
0.6 0.3 0.9 1.0
0.6 0.4 0.0 1.0
0.6 0.4 0.1 1.0
0.6 0.4 0.2 1.0
0.6 0.4 0.3 1.0
0.6 0.4 0.4 1.0
0.6 0.4 0.5 1.0
0.6 0.4 0.6 1.0
0.6 0.4 0.7 1.0
0.6 0.4 0.8 1.0
0.6 0.4 0.9 1.0
0.6 0.5 0.0 1.0
0.6 0.5 0.1 1.0
0.6 0.5 0.2 1.0
0.6 0.5 0.3 1.0
0.6 0.5 0.4 1.0
0.6 0.5 0.5 1.0
0.6 0.5 0.6 1.0
0.6 0.5 0.7 1.0
0.6 0.5 0.8 1.0
0.6 0.5 0.9 1.0
0.6 0.6 0.0 1.0
0.6 0.6 0.1 1.0
0.6 0.6 0.2 1.0
0.6 0.6 0.3 1.0
0.6 0.6 0.4 1.0
0.6 0.6 0.5 1.0
0.6 0.6 0.6 1.0
0.6 0.6 0.7 1.0
0.6 0.6 0.8 1.0
0.6 0.6 0.9 1.0
0.6 0.7 0.0 1.0
0.6 0.7 0.1 1.0
0.6 0.7 0.2 1.0
0.6 0.7 0.3 1.0
0.6 0.7 0.4 1.0
0.6 0.7 0.5 1.0
0.6 0.7 0.6 1.0
0.6 0.7 0.7 1.0
0.6 0.7 0.8 1.0
0.6 0.7 0.9 1.0
0.6 0.8 0.0 1.0
0.6 0.8 0.1 1.0
0.6 0.8 0.2 1.0
0.6 0.8 0.3 1.0
0.6 0.8 0.4 1.0
0.6 0.8 0.5 1.0
0.6 0.8 0.6 1.0
0.6 0.8 0.7 1.0
0.6 0.8 0.8 1.0
0.6 0.8 0.9 1.0
0.6 0.9 0.0 1.0
0.6 0.9 0.1 1.0
0.6 0.9 0.2 1.0
0.6 0.9 0.3 1.0
0.6 0.9 0.4 1.0
0.6 0.9 0.5 1.0
0.6 0.9 0.6 1.0
0.6 0.9 0.7 1.0
0.6 0.9 0.8 1.0
0.6 0.9 0.9 1.0
0.7 0.0 0.0 1.0
0.7 0.0 0.1 1.0
0.7 0.0 0.2 1.0
0.7 0.0 0.3 1.0
0.7 0.0 0.4 1.0
0.7 0.0 0.5 1.0
0.7 0.0 0.6 1.0
0.7 0.0 0.7 1.0
0.7 0.0 0.8 1.0
0.7 0.0 0.9 1.0
0.7 0.1 0.0 1.0
0.7 0.1 0.1 1.0
0.7 0.1 0.2 1.0
0.7 0.1 0.3 1.0
0.7 0.1 0.4 1.0
0.7 0.1 0.5 1.0
0.7 0.1 0.6 1.0
0.7 0.1 0.7 1.0
0.7 0.1 0.8 1.0
0.7 0.1 0.9 1.0
0.7 0.2 0.0 1.0
0.7 0.2 0.1 1.0
0.7 0.2 0.2 1.0
0.7 0.2 0.3 1.0
0.7 0.2 0.4 1.0
0.7 0.2 0.5 1.0
0.7 0.2 0.6 1.0
0.7 0.2 0.7 1.0
0.7 0.2 0.8 1.0
0.7 0.2 0.9 1.0
0.7 0.3 0.0 1.0
0.7 0.3 0.1 1.0
0.7 0.3 0.2 1.0
0.7 0.3 0.3 1.0
0.7 0.3 0.4 1.0
0.7 0.3 0.5 1.0
0.7 0.3 0.6 1.0
0.7 0.3 0.7 1.0
0.7 0.3 0.8 1.0
0.7 0.3 0.9 1.0
0.7 0.4 0.0 1.0
0.7 0.4 0.1 1.0
0.7 0.4 0.2 1.0
0.7 0.4 0.3 1.0
0.7 0.4 0.4 1.0
0.7 0.4 0.5 1.0
0.7 0.4 0.6 1.0
0.7 0.4 0.7 1.0
0.7 0.4 0.8 1.0
0.7 0.4 0.9 1.0
0.7 0.5 0.0 1.0
0.7 0.5 0.1 1.0
0.7 0.5 0.2 1.0
0.7 0.5 0.3 1.0
0.7 0.5 0.4 1.0
0.7 0.5 0.5 1.0
0.7 0.5 0.6 1.0
0.7 0.5 0.7 1.0
0.7 0.5 0.8 1.0
0.7 0.5 0.9 1.0
0.7 0.6 0.0 1.0
0.7 0.6 0.1 1.0
0.7 0.6 0.2 1.0
0.7 0.6 0.3 1.0
0.7 0.6 0.4 1.0
0.7 0.6 0.5 1.0
0.7 0.6 0.6 1.0
0.7 0.6 0.7 1.0
0.7 0.6 0.8 1.0
0.7 0.6 0.9 1.0
0.7 0.7 0.0 1.0
0.7 0.7 0.1 1.0
0.7 0.7 0.2 1.0
0.7 0.7 0.3 1.0
0.7 0.7 0.4 1.0
0.7 0.7 0.5 1.0
0.7 0.7 0.6 1.0
0.7 0.7 0.7 1.0
0.7 0.7 0.8 1.0
0.7 0.7 0.9 1.0
0.7 0.8 0.0 1.0
0.7 0.8 0.1 1.0
0.7 0.8 0.2 1.0
0.7 0.8 0.3 1.0
0.7 0.8 0.4 1.0
0.7 0.8 0.5 1.0
0.7 0.8 0.6 1.0
0.7 0.8 0.7 1.0
0.7 0.8 0.8 1.0
0.7 0.8 0.9 1.0
0.7 0.9 0.0 1.0
0.7 0.9 0.1 1.0
0.7 0.9 0.2 1.0
0.7 0.9 0.3 1.0
0.7 0.9 0.4 1.0
0.7 0.9 0.5 1.0
0.7 0.9 0.6 1.0
0.7 0.9 0.7 1.0
0.7 0.9 0.8 1.0
0.7 0.9 0.9 1.0
0.8 0.0 0.0 1.0
0.8 0.0 0.1 1.0
0.8 0.0 0.2 1.0
0.8 0.0 0.3 1.0
0.8 0.0 0.4 1.0
0.8 0.0 0.5 1.0
0.8 0.0 0.6 1.0
0.8 0.0 0.7 1.0
0.8 0.0 0.8 1.0
0.8 0.0 0.9 1.0
0.8 0.1 0.0 1.0
0.8 0.1 0.1 1.0
0.8 0.1 0.2 1.0
0.8 0.1 0.3 1.0
0.8 0.1 0.4 1.0
0.8 0.1 0.5 1.0
0.8 0.1 0.6 1.0
0.8 0.1 0.7 1.0
0.8 0.1 0.8 1.0
0.8 0.1 0.9 1.0
0.8 0.2 0.0 1.0
0.8 0.2 0.1 1.0
0.8 0.2 0.2 1.0
0.8 0.2 0.3 1.0
0.8 0.2 0.4 1.0
0.8 0.2 0.5 1.0
0.8 0.2 0.6 1.0
0.8 0.2 0.7 1.0
0.8 0.2 0.8 1.0
0.8 0.2 0.9 1.0
0.8 0.3 0.0 1.0
0.8 0.3 0.1 1.0
0.8 0.3 0.2 1.0
0.8 0.3 0.3 1.0
0.8 0.3 0.4 1.0
0.8 0.3 0.5 1.0
0.8 0.3 0.6 1.0
0.8 0.3 0.7 1.0
0.8 0.3 0.8 1.0
0.8 0.3 0.9 1.0
0.8 0.4 0.0 1.0
0.8 0.4 0.1 1.0
0.8 0.4 0.2 1.0
0.8 0.4 0.3 1.0
0.8 0.4 0.4 1.0
0.8 0.4 0.5 1.0
0.8 0.4 0.6 1.0
0.8 0.4 0.7 1.0
0.8 0.4 0.8 1.0
0.8 0.4 0.9 1.0
0.8 0.5 0.0 1.0
0.8 0.5 0.1 1.0
0.8 0.5 0.2 1.0
0.8 0.5 0.3 1.0
0.8 0.5 0.4 1.0
0.8 0.5 0.5 1.0
0.8 0.5 0.6 1.0
0.8 0.5 0.7 1.0
0.8 0.5 0.8 1.0
0.8 0.5 0.9 1.0
0.8 0.6 0.0 1.0
0.8 0.6 0.1 1.0
0.8 0.6 0.2 1.0
0.8 0.6 0.3 1.0
0.8 0.6 0.4 1.0
0.8 0.6 0.5 1.0
0.8 0.6 0.6 1.0
0.8 0.6 0.7 1.0
0.8 0.6 0.8 1.0
0.8 0.6 0.9 1.0
0.8 0.7 0.0 1.0
0.8 0.7 0.1 1.0
0.8 0.7 0.2 1.0
0.8 0.7 0.3 1.0
0.8 0.7 0.4 1.0
0.8 0.7 0.5 1.0
0.8 0.7 0.6 1.0
0.8 0.7 0.7 1.0
0.8 0.7 0.8 1.0
0.8 0.7 0.9 1.0
0.8 0.8 0.0 1.0
0.8 0.8 0.1 1.0
0.8 0.8 0.2 1.0
0.8 0.8 0.3 1.0
0.8 0.8 0.4 1.0
0.8 0.8 0.5 1.0
0.8 0.8 0.6 1.0
0.8 0.8 0.7 1.0
0.8 0.8 0.8 1.0
0.8 0.8 0.9 1.0
0.8 0.9 0.0 1.0
0.8 0.9 0.1 1.0
0.8 0.9 0.2 1.0
0.8 0.9 0.3 1.0
0.8 0.9 0.4 1.0
0.8 0.9 0.5 1.0
0.8 0.9 0.6 1.0
0.8 0.9 0.7 1.0
0.8 0.9 0.8 1.0
0.8 0.9 0.9 1.0
0.9 0.0 0.0 1.0
0.9 0.0 0.1 1.0
0.9 0.0 0.2 1.0
0.9 0.0 0.3 1.0
0.9 0.0 0.4 1.0
0.9 0.0 0.5 1.0
0.9 0.0 0.6 1.0
0.9 0.0 0.7 1.0
0.9 0.0 0.8 1.0
0.9 0.0 0.9 1.0
0.9 0.1 0.0 1.0
0.9 0.1 0.1 1.0
0.9 0.1 0.2 1.0
0.9 0.1 0.3 1.0
0.9 0.1 0.4 1.0
0.9 0.1 0.5 1.0
0.9 0.1 0.6 1.0
0.9 0.1 0.7 1.0
0.9 0.1 0.8 1.0
0.9 0.1 0.9 1.0
0.9 0.2 0.0 1.0
0.9 0.2 0.1 1.0
0.9 0.2 0.2 1.0
0.9 0.2 0.3 1.0
0.9 0.2 0.4 1.0
0.9 0.2 0.5 1.0
0.9 0.2 0.6 1.0
0.9 0.2 0.7 1.0
0.9 0.2 0.8 1.0
0.9 0.2 0.9 1.0
0.9 0.3 0.0 1.0
0.9 0.3 0.1 1.0
0.9 0.3 0.2 1.0
0.9 0.3 0.3 1.0
0.9 0.3 0.4 1.0
0.9 0.3 0.5 1.0
0.9 0.3 0.6 1.0
0.9 0.3 0.7 1.0
0.9 0.3 0.8 1.0
0.9 0.3 0.9 1.0
0.9 0.4 0.0 1.0
0.9 0.4 0.1 1.0
0.9 0.4 0.2 1.0
0.9 0.4 0.3 1.0
0.9 0.4 0.4 1.0
0.9 0.4 0.5 1.0
0.9 0.4 0.6 1.0
0.9 0.4 0.7 1.0
0.9 0.4 0.8 1.0
0.9 0.4 0.9 1.0
0.9 0.5 0.0 1.0
0.9 0.5 0.1 1.0
0.9 0.5 0.2 1.0
0.9 0.5 0.3 1.0
0.9 0.5 0.4 1.0
0.9 0.5 0.5 1.0
0.9 0.5 0.6 1.0
0.9 0.5 0.7 1.0
0.9 0.5 0.8 1.0
0.9 0.5 0.9 1.0
0.9 0.6 0.0 1.0
0.9 0.6 0.1 1.0
0.9 0.6 0.2 1.0
0.9 0.6 0.3 1.0
0.9 0.6 0.4 1.0
0.9 0.6 0.5 1.0
0.9 0.6 0.6 1.0
0.9 0.6 0.7 1.0
0.9 0.6 0.8 1.0
0.9 0.6 0.9 1.0
0.9 0.7 0.0 1.0
0.9 0.7 0.1 1.0
0.9 0.7 0.2 1.0
0.9 0.7 0.3 1.0
0.9 0.7 0.4 1.0
0.9 0.7 0.5 1.0
0.9 0.7 0.6 1.0
0.9 0.7 0.7 1.0
0.9 0.7 0.8 1.0
0.9 0.7 0.9 1.0
0.9 0.8 0.0 1.0
0.9 0.8 0.1 1.0
0.9 0.8 0.2 1.0
0.9 0.8 0.3 1.0
0.9 0.8 0.4 1.0
0.9 0.8 0.5 1.0
0.9 0.8 0.6 1.0
0.9 0.8 0.7 1.0
0.9 0.8 0.8 1.0
0.9 0.8 0.9 1.0
0.9 0.9 0.0 1.0
0.9 0.9 0.1 1.0
0.9 0.9 0.2 1.0
0.9 0.9 0.3 1.0
0.9 0.9 0.4 1.0
0.9 0.9 0.5 1.0
0.9 0.9 0.6 1.0
0.9 0.9 0.7 1.0
0.9 0.9 0.8 1.0
0.9 0.9 0.9 1.0
