&inputpp
  outdir     =  './'
  prefix     =  'si'
  seedname   =  'si'
  write_amn  = .true.
  write_mmn  = .true.
  write_unk  = .true.
/
