berry = true
berry_task=kdotp   
fermi_energy=7.7414
use_ws_distance = .false.
search_shells=12

kdotp_kpoint  =  0.0000 0.5000 0.0000
kdotp_num_bands = 2
kdotp_bands =  4,5
berry_kmesh = 1 1 1
sc_eta=0.040


num_bands         =   12
num_wann          =   8 

num_iter          = 1000
num_print_cycles  = 40

dis_win_max       = 24.0d0
dis_froz_max      =  14.0d0
dis_num_iter      =  1200
dis_mix_ratio     = 1.d0



bands_plot : true
bands_num_points : 151
bands_plot_format : gnuplot

exclude_bands :  1-5 

begin unit_cell_cart
bohr
-5.34 0.0 5.34
0.0 5.34 5.34
-5.34 5.34 0.0
end unit_cell_cart



#reciprocal lattice units
Begin Kpoint_Path
G 0.000    0.000    0.000  L 0.00000      0.50000      0.00000
L 0.00000      0.50000      0.00000  K 0.00000      0.62500      0.37500
K 0.00000      0.62500      0.37500 X 0.00000      0.50000      0.50000
X 0.00000      0.50000      0.50000 W 0.25000      0.75000      0.50000
W 0.25000      0.75000      0.50000 G 0.00000      0.00000      0.00000
End Kpoint_Path

begin projections
f=0.25,0.25,0.25 : s
f=0.25,0.25,0.25 : p
f= 0.0, 0.0, 0.0 : p
f= 0.0, 0.0, 0.0 : s
end projections


begin atoms_frac
Ga 0.00  0.00  0.00
As 0.25  0.25  0.25
end atoms_frac

mp_grid : 4 4 4    


begin kpoints
0.0 0.0 0.0
0.0 0.0 0.25
0.0 0.0 0.5
0.0 0.0 0.75
0.0 0.25 0.0
0.0 0.25 0.25
0.0 0.25 0.5
0.0 0.25 0.75
0.0 0.5 0.0
0.0 0.5 0.25
0.0 0.5 0.5
0.0 0.5 0.75
0.0 0.75 0.0
0.0 0.75 0.25
0.0 0.75 0.5
0.0 0.75 0.75
0.25 0.0 0.0
0.25 0.0 0.25
0.25 0.0 0.5
0.25 0.0 0.75
0.25 0.25 0.0
0.25 0.25 0.25
0.25 0.25 0.5
0.25 0.25 0.75
0.25 0.5 0.0
0.25 0.5 0.25
0.25 0.5 0.5
0.25 0.5 0.75
0.25 0.75 0.0
0.25 0.75 0.25
0.25 0.75 0.5
0.25 0.75 0.75
0.5 0.0 0.0
0.5 0.0 0.25
0.5 0.0 0.5
0.5 0.0 0.75
0.5 0.25 0.0
0.5 0.25 0.25
0.5 0.25 0.5
0.5 0.25 0.75
0.5 0.5 0.0
0.5 0.5 0.25
0.5 0.5 0.5
0.5 0.5 0.75
0.5 0.75 0.0
0.5 0.75 0.25
0.5 0.75 0.5
0.5 0.75 0.75
0.75 0.0 0.0
0.75 0.0 0.25
0.75 0.0 0.5
0.75 0.0 0.75
0.75 0.25 0.0
0.75 0.25 0.25
0.75 0.25 0.5
0.75 0.25 0.75
0.75 0.5 0.0
0.75 0.5 0.25
0.75 0.5 0.5
0.75 0.5 0.75
0.75 0.75 0.0
0.75 0.75 0.25
0.75 0.75 0.5
0.75 0.75 0.75
end kpoints
