num_bands         =   4 
num_wann          =   4

site_symmetry = .true.
symmetrize_eps=  1d-9

begin projections
f=-.25,-.25,-.25 : s
f=-.25,-.25,-.25 : p
end projections

hr_plot = .true.
bands_plot = .true.
wannier_plot = .true.

wannier_plot_supercell = 2

exclude_bands= 1-5, 10-18

begin kpoint_path
L   0.50000     0.50000     0.50000   G   0.00000     0.00000     0.00000
G   0.00000     0.00000     0.00000   X   0.50000     0.00000     0.50000
X   0.50000     0.00000     0.50000   W   0.50000     0.25000     0.75000
W   0.50000     0.25000     0.75000   L   0.50000     0.50000     0.50000
L   0.50000     0.50000     0.50000   K   0.75000     0.37500     0.37500
K   0.75000     0.37500     0.37500   G   0.00000     0.00000     0.00000
end kpoint_path

begin unit_cell_cart
bohr
-5.34 0.0 5.34
0.0 5.34 5.34
-5.34 5.34 0.0
end unit_cell_cart


mp_grid           = 4 4 4

begin kpoints
0	0	0	0.015625 
0.25	0	0	0.015625 
0.5	0	0	0.015625 
0.75	0	0	0.015625 
0	0.25	0	0.015625 
0.25	0.25	0	0.015625 
0.5	0.25	0	0.015625 
0.75	0.25	0	0.015625 
0	0.5	0	0.015625 
0.25	0.5	0	0.015625 
0.5	0.5	0	0.015625 
0.75	0.5	0	0.015625 
0	0.75	0	0.015625 
0.25	0.75	0	0.015625 
0.5	0.75	0	0.015625 
0.75	0.75	0	0.015625 
0	0	0.25	0.015625 
0.25	0	0.25	0.015625 
0.5	0	0.25	0.015625 
0.75	0	0.25	0.015625 
0	0.25	0.25	0.015625 
0.25	0.25	0.25	0.015625 
0.5	0.25	0.25	0.015625 
0.75	0.25	0.25	0.015625 
0	0.5	0.25	0.015625 
0.25	0.5	0.25	0.015625 
0.5	0.5	0.25	0.015625 
0.75	0.5	0.25	0.015625 
0	0.75	0.25	0.015625 
0.25	0.75	0.25	0.015625 
0.5	0.75	0.25	0.015625 
0.75	0.75	0.25	0.015625 
0	0	0.5	0.015625 
0.25	0	0.5	0.015625 
0.5	0	0.5	0.015625 
0.75	0	0.5	0.015625 
0	0.25	0.5	0.015625 
0.25	0.25	0.5	0.015625 
0.5	0.25	0.5	0.015625 
0.75	0.25	0.5	0.015625 
0	0.5	0.5	0.015625 
0.25	0.5	0.5	0.015625 
0.5	0.5	0.5	0.015625 
0.75	0.5	0.5	0.015625 
0	0.75	0.5	0.015625 
0.25	0.75	0.5	0.015625 
0.5	0.75	0.5	0.015625 
0.75	0.75	0.5	0.015625 
0	0	0.75	0.015625 
0.25	0	0.75	0.015625 
0.5	0	0.75	0.015625 
0.75	0	0.75	0.015625 
0	0.25	0.75	0.015625 
0.25	0.25	0.75	0.015625 
0.5	0.25	0.75	0.015625 
0.75	0.25	0.75	0.015625 
0	0.5	0.75	0.015625 
0.25	0.5	0.75	0.015625 
0.5	0.5	0.75	0.015625 
0.75	0.5	0.75	0.015625 
0	0.75	0.75	0.015625 
0.25	0.75	0.75	0.015625 
0.5	0.75	0.75	0.015625 
0.75	0.75	0.75	0.015625 
end kpoints
