&inputpp 
   outdir = './'
   prefix = 'bc2n'
   seedname = 'bc2n'
   write_mmn = .true.
   write_amn = .true.
/
