 &control
    calculation='nscf'
    restart_mode='from_scratch',
    pseudo_dir = '../../pseudo/',
    outdir='./'
    prefix='Te'
    verbosity='high'
    wf_collect=.true.
 /
 &system
    ibrav = 4,  celldm(1)=8.4253, celldm(3)=1.3368, nat= 3, ntyp= 1,
    ecutwfc = 20
    lspinorb=.true.,
    noncolin=.true.
    occupations='smearing', smearing='cold', degauss=0.02
    force_symmorphic   =  .true.
    nbnd=200
 /
 &electrons
    startingwfc='random'
    diagonalization='cg'
    conv_thr=1.0e-10
 /

ATOMIC_SPECIES
Te 1.0  Te.rel-pbe-n-nc.UPF

ATOMIC_POSITIONS crystal
Te   0.274036   0.274036  0.0000000000000000  
Te  -0.274036   0.000000  0.3333333333333357  
Te  -0.000000  -0.274036  0.6666666666666643  


K_POINTS crystal
36
0.0000000000 0.0000000000 0.0000000000  0.027777778
0.0000000000 0.0000000000 0.2500000000  0.027777778
0.0000000000 0.0000000000 0.5000000000  0.027777778
0.0000000000 0.0000000000 0.7500000000  0.027777778
0.0000000000 0.3333333333 0.0000000000  0.027777778
0.0000000000 0.3333333333 0.2500000000  0.027777778
0.0000000000 0.3333333333 0.5000000000  0.027777778
0.0000000000 0.3333333333 0.7500000000  0.027777778
0.0000000000 0.6666666667 0.0000000000  0.027777778
0.0000000000 0.6666666667 0.2500000000  0.027777778
0.0000000000 0.6666666667 0.5000000000  0.027777778
0.0000000000 0.6666666667 0.7500000000  0.027777778
0.3333333333 0.0000000000 0.0000000000  0.027777778
0.3333333333 0.0000000000 0.2500000000  0.027777778
0.3333333333 0.0000000000 0.5000000000  0.027777778
0.3333333333 0.0000000000 0.7500000000  0.027777778
0.3333333333 0.3333333333 0.0000000000  0.027777778
0.3333333333 0.3333333333 0.2500000000  0.027777778
0.3333333333 0.3333333333 0.5000000000  0.027777778
0.3333333333 0.3333333333 0.7500000000  0.027777778
0.3333333333 0.6666666667 0.0000000000  0.027777778
0.3333333333 0.6666666667 0.2500000000  0.027777778
0.3333333333 0.6666666667 0.5000000000  0.027777778
0.3333333333 0.6666666667 0.7500000000  0.027777778
0.6666666667 0.0000000000 0.0000000000  0.027777778
0.6666666667 0.0000000000 0.2500000000  0.027777778
0.6666666667 0.0000000000 0.5000000000  0.027777778
0.6666666667 0.0000000000 0.7500000000  0.027777778
0.6666666667 0.3333333333 0.0000000000  0.027777778
0.6666666667 0.3333333333 0.2500000000  0.027777778
0.6666666667 0.3333333333 0.5000000000  0.027777778
0.6666666667 0.3333333333 0.7500000000  0.027777778
0.6666666667 0.6666666667 0.0000000000  0.027777778
0.6666666667 0.6666666667 0.2500000000  0.027777778
0.6666666667 0.6666666667 0.5000000000  0.027777778

