 &control
    calculation='scf'
    restart_mode='from_scratch',
    pseudo_dir = '../../pseudo/',
    outdir='./'
    prefix='Te'
    verbosity='high'
 /
 &system
    ibrav = 4,  celldm(1)=8.4253, celldm(3)=1.3368, nat= 3, ntyp= 1,
    ecutwfc = 20
    lspinorb=.true.,
    noncolin=.true.
    occupations='tetrahedra'
 /
 &electrons
    startingwfc='random'
    diagonalization='cg'
    conv_thr=1.0e-10
 /



ATOMIC_SPECIES
Te 1.0  Te.rel-pbe-n-nc.UPF

ATOMIC_POSITIONS crystal
Te   0.274036   0.274036  0.0000000000000000  
Te  -0.274036   0.000000  0.3333333333333357  
Te  -0.000000  -0.274036  0.6666666666666643  


K_POINTS (automatic)
9 9 6 0 0 0
