
dis_win_min       =  -1
dis_win_max       =   9.0
dis_froz_min      =  -1
dis_froz_max      =  9.0
dis_num_iter      =  1000 
num_iter      = 1000 
dis_mix_ratio = 1.0


bands_num_points=200
begin kpoint_path
A 0.0  0.0  0.5  G 0.0  0.0  0.0   
G 0.0  0.0  0.0  H 0.33333 0.33333 0.5 
H 0.33333 0.33333 0.5  A 0.0  0.0  0.5   
A 0.0  0.0  0.5  L 0.5  0.0  0.5  
L 0.5  0.0  0.5   H 0.33333 0.33333 0.5  
H 0.33333 0.33333 0.5  K 0.33333 0.33333 0.0  
K 0.33333 0.33333 0.0 G 0.0  0.0  0.0  
G 0.0  0.0  0.0   M 0.5  0.0  0.0   
M 0.5  0.0  0.0   K 0.33333 0.33333 0.0  
end kpoint_path
num_wann          =   18

begin projections
Te:l=1
end projections


num_bands         =   40


spinors = T

timing_level=4

begin unit_cell_cart
bohr
 8.4253       0.           0.        
-4.21265      7.29652383   0.        
 0.           0.          11.26294104
end unit_cell_cart

begin atoms_frac
Te  0.2424779174533531  0.2424779174533531  0.0000000000000000  
Te -0.2424779174533531  0.0000000000000000  0.3333333333333357  
Te -0.0000000000000000 -0.2424779174533531  -0.3333333333333357  
end atoms_frac


mp_grid           = 3 3 4

begin kpoints
0.0000000000 0.0000000000 0.0000000000  0.027777778
0.0000000000 0.0000000000 0.2500000000  0.027777778
0.0000000000 0.0000000000 0.5000000000  0.027777778
0.0000000000 0.0000000000 0.7500000000  0.027777778
0.0000000000 0.3333333333 0.0000000000  0.027777778
0.0000000000 0.3333333333 0.2500000000  0.027777778
0.0000000000 0.3333333333 0.5000000000  0.027777778
0.0000000000 0.3333333333 0.7500000000  0.027777778
0.0000000000 0.6666666667 0.0000000000  0.027777778
0.0000000000 0.6666666667 0.2500000000  0.027777778
0.0000000000 0.6666666667 0.5000000000  0.027777778
0.0000000000 0.6666666667 0.7500000000  0.027777778
0.3333333333 0.0000000000 0.0000000000  0.027777778
0.3333333333 0.0000000000 0.2500000000  0.027777778
0.3333333333 0.0000000000 0.5000000000  0.027777778
0.3333333333 0.0000000000 0.7500000000  0.027777778
0.3333333333 0.3333333333 0.0000000000  0.027777778
0.3333333333 0.3333333333 0.2500000000  0.027777778
0.3333333333 0.3333333333 0.5000000000  0.027777778
0.3333333333 0.3333333333 0.7500000000  0.027777778
0.3333333333 0.6666666667 0.0000000000  0.027777778
0.3333333333 0.6666666667 0.2500000000  0.027777778
0.3333333333 0.6666666667 0.5000000000  0.027777778
0.3333333333 0.6666666667 0.7500000000  0.027777778
0.6666666667 0.0000000000 0.0000000000  0.027777778
0.6666666667 0.0000000000 0.2500000000  0.027777778
0.6666666667 0.0000000000 0.5000000000  0.027777778
0.6666666667 0.0000000000 0.7500000000  0.027777778
0.6666666667 0.3333333333 0.0000000000  0.027777778
0.6666666667 0.3333333333 0.2500000000  0.027777778
0.6666666667 0.3333333333 0.5000000000  0.027777778
0.6666666667 0.3333333333 0.7500000000  0.027777778
0.6666666667 0.6666666667 0.0000000000  0.027777778
0.6666666667 0.6666666667 0.2500000000  0.027777778
0.6666666667 0.6666666667 0.5000000000  0.027777778
0.6666666667 0.6666666667 0.7500000000  0.027777778
end kpoints
