&inputpp 
   outdir         = './'
   prefix         = 'cnt'
   seedname       = 'cnt'
   write_mmn      = .true.
   write_amn      = .true.
/

