
&inputpp
  prefix='gh'
  spin_component = 'none'
  seedname = 'graphite'
/

