berry = true
berry_task = ic
berry_kmesh = 25 25 25

fermi_energy=5.0

kubo_freq_min= 0.0
kubo_freq_max= 10.0
kubo_freq_step= 0.1
kubo_adpt_smr=true

use_ws_distance = .false.
search_shells=12

num_iter=1000

dis_win_min=-0.5
dis_win_max=10
dis_froz_min=0.0
dis_froz_max=8


bands_plot=true
bands_num_points=200
begin kpoint_path
A 0.00000 0.00000 0.50000 G 0.00000 0.00000 0.00000   
G 0.00000 0.00000 0.00000 H 0.33333 0.33333 0.50000 
H 0.33333 0.33333 0.50000 A 0.00000 0.00000 0.50000   
A 0.00000 0.00000 0.50000 L 0.50000 0.00000 0.50000  
L 0.50000 0.00000 0.50000 H 0.33333 0.33333 0.50000  
H 0.33333 0.33333 0.50000 K 0.33333 0.33333 0.00000  
K 0.33333 0.33333 0.00000 G 0.00000 0.00000 0.00000  
G 0.00000 0.00000 0.00000 M 0.50000 0.00000 0.00000  
M 0.50000 0.00000 0.00000 K 0.33333 0.33333 0.00000  
end kpoint_path


num_bands=12
num_wann=9
Begin Projections
f=  0.274036,   0.274036,  0.0000000000000000000  :px,py,pz:z= 0,0,1:x=0.5,0.866025404,0 
f= -0.274036,   0.000000,  0.3333333333333333357  :px,py,pz:z= 0,0,1:x=-1,0,0
f= -0.000000,  -0.274036,  0.6666666666666666643  :px,py,pz:z= 0,0,1:x=0.5,-0.866025404,0
end projections

spinors = .false.

begin unit_cell_cart
     4.4570000     0.0000000     0.0000000
    -2.2285000     3.8598752     0.0000000
     0.0000000     0.0000000     5.9581176
end unit_cell_cart

begin atoms_frac
Te   0.274036   0.274036  0.00000000000000000000000000  
Te  -0.274036   0.000000  0.33333333333333333333333357  
Te  -0.000000  -0.274036  0.66666666666666666666666643  
end atoms_frac

mp_grid =     2 2 2

begin kpoints
  0.00000000  0.00000000  0.00000000  1.250000e-01 
  0.00000000  0.00000000  0.50000000  1.250000e-01 
  0.00000000  0.50000000  0.00000000  1.250000e-01 
  0.00000000  0.50000000  0.50000000  1.250000e-01 
  0.50000000  0.00000000  0.00000000  1.250000e-01 
  0.50000000  0.00000000  0.50000000  1.250000e-01 
  0.50000000  0.50000000  0.00000000  1.250000e-01 
  0.50000000  0.50000000  0.50000000  1.250000e-01 
 end kpoints
