&inputpp 
   outdir = './'
   prefix = 'Fe'
   seedname = 'Fe'
   write_mmn = .true.
   write_amn = .true.
   write_uHu = .true.
   write_spn = .false.
   write_unk = .false.
/
