&control
    calculation = 'scf'
    restart_mode = 'from_scratch'
    prefix = 'cnt'
    outdir = './'
    pseudo_dir = '../../../pseudo/'
/
&system
    ibrav= 0
    celldm(1) = 0
    nat  = 20
    ntyp = 1
    ecutwfc = 30
    ecutrho = 240
    occupations = "smearing" 
    smearing = "cold"
    degauss = 0.007
/
&electrons
    mixing_beta = 0.6
    conv_thr =  1.0d-10
    diagonalization = 'cg'
    startingwfc = 'random'
/
ATOMIC_SPECIES
 C   12.00   C.pz-vbc.UPF
ATOMIC_POSITIONS {angstrom}
C     1.58342228     1.15042363     0.00000000
C     0.60481349     1.86142453     2.13000000
C    -0.60481349     1.86142453     0.00000000
C    -1.58342228     1.15042363     2.13000000
C    -1.95721758     0.00000000     0.00000000
C    -1.58342228    -1.15042363     2.13000000
C    -0.60481349    -1.86142453     0.00000000
C     0.60481349    -1.86142453     2.13000000
C     1.58342228    -1.15042363     0.00000000
C     1.95721758    -0.00000000     2.13000000
C     1.58342228    -1.15042363     1.42000000
C     1.95721758     0.00000000     3.55000000
C     1.58342228     1.15042363     1.42000000
C     0.60481349     1.86142453     3.55000000
C    -0.60481349     1.86142453     1.42000000
C    -1.58342228     1.15042363     3.55000000
C    -1.95721758     0.00000000     1.42000000
C    -1.58342228    -1.15042363     3.55000000
C    -0.60481349    -1.86142453     1.42000000
C     0.60481349    -1.86142453     3.55000000
K_POINTS crystal
10
  0.00000000  0.00000000  0.00000000  1.000000e-01 
  0.00000000  0.00000000  0.10000000  1.000000e-01 
  0.00000000  0.00000000  0.20000000  1.000000e-01 
  0.00000000  0.00000000  0.30000000  1.000000e-01 
  0.00000000  0.00000000  0.40000000  1.000000e-01 
  0.00000000  0.00000000  0.50000000  1.000000e-01 
  0.00000000  0.00000000  0.60000000  1.000000e-01 
  0.00000000  0.00000000  0.70000000  1.000000e-01 
  0.00000000  0.00000000  0.80000000  1.000000e-01 
  0.00000000  0.00000000  0.90000000  1.000000e-01
CELL_PARAMETERS
 26.2945 0.00 0.00
 0.00 25.9316 0.00
 0.00 0.00  8.0503

