&CONTROL
  calculation = 'nscf'
  etot_conv_thr =   2.0000000000d-05
  forc_conv_thr =   1.0000000000d-04
  max_seconds =   4.1040000000d+04
  outdir = './out/'
  prefix = 'graphene'
  pseudo_dir = '../../pseudo/'
  tprnfor = .true.
  tstress = .true.
  verbosity = 'high'
/
&SYSTEM
  degauss =   1.0000000000d-02
  ecutrho =   1.4700000000d+02
  ecutwfc =   3.7000000000d+01
  ibrav = 0
  nat = 2
  nbnd = 60
  noinv = .true.
  nosym = .true.
  ntyp = 1
  occupations = 'smearing'
  smearing = 'cold'
/
&ELECTRONS
  conv_thr =   4.0000000000d-10
  diago_full_acc = .true.
  electron_maxstep = 80
  mixing_beta =   4.0000000000d-01
  startingpot = 'file'
/
ATOMIC_SPECIES
C      12.011 C.pbe-n-kjpaw_psl.0.1.UPF
ATOMIC_POSITIONS angstrom
C            0.0000000000       1.4202816622       0.0000000000 
C            1.2300000000       0.7101408311       0.0000000000 
CELL_PARAMETERS angstrom
      2.4600000000       0.0000000000       0.0000000000
     -1.2300000000       2.1304224933       0.0000000000
      0.0000000000       0.0000000000      20.0000000000
K_POINTS crystal
81
  0.00000000  0.00000000  0.00000000  1.234568e-02
  0.00000000  0.11111111  0.00000000  1.234568e-02
  0.00000000  0.22222222  0.00000000  1.234568e-02
  0.00000000  0.33333333  0.00000000  1.234568e-02
  0.00000000  0.44444444  0.00000000  1.234568e-02
  0.00000000  0.55555556  0.00000000  1.234568e-02
  0.00000000  0.66666667  0.00000000  1.234568e-02
  0.00000000  0.77777778  0.00000000  1.234568e-02
  0.00000000  0.88888889  0.00000000  1.234568e-02
  0.11111111  0.00000000  0.00000000  1.234568e-02
  0.11111111  0.11111111  0.00000000  1.234568e-02
  0.11111111  0.22222222  0.00000000  1.234568e-02
  0.11111111  0.33333333  0.00000000  1.234568e-02
  0.11111111  0.44444444  0.00000000  1.234568e-02
  0.11111111  0.55555556  0.00000000  1.234568e-02
  0.11111111  0.66666667  0.00000000  1.234568e-02
  0.11111111  0.77777778  0.00000000  1.234568e-02
  0.11111111  0.88888889  0.00000000  1.234568e-02
  0.22222222  0.00000000  0.00000000  1.234568e-02
  0.22222222  0.11111111  0.00000000  1.234568e-02
  0.22222222  0.22222222  0.00000000  1.234568e-02
  0.22222222  0.33333333  0.00000000  1.234568e-02
  0.22222222  0.44444444  0.00000000  1.234568e-02
  0.22222222  0.55555556  0.00000000  1.234568e-02
  0.22222222  0.66666667  0.00000000  1.234568e-02
  0.22222222  0.77777778  0.00000000  1.234568e-02
  0.22222222  0.88888889  0.00000000  1.234568e-02
  0.33333333  0.00000000  0.00000000  1.234568e-02
  0.33333333  0.11111111  0.00000000  1.234568e-02
  0.33333333  0.22222222  0.00000000  1.234568e-02
  0.33333333  0.33333333  0.00000000  1.234568e-02
  0.33333333  0.44444444  0.00000000  1.234568e-02
  0.33333333  0.55555556  0.00000000  1.234568e-02
  0.33333333  0.66666667  0.00000000  1.234568e-02
  0.33333333  0.77777778  0.00000000  1.234568e-02
  0.33333333  0.88888889  0.00000000  1.234568e-02
  0.44444444  0.00000000  0.00000000  1.234568e-02
  0.44444444  0.11111111  0.00000000  1.234568e-02
  0.44444444  0.22222222  0.00000000  1.234568e-02
  0.44444444  0.33333333  0.00000000  1.234568e-02
  0.44444444  0.44444444  0.00000000  1.234568e-02
  0.44444444  0.55555556  0.00000000  1.234568e-02
  0.44444444  0.66666667  0.00000000  1.234568e-02
  0.44444444  0.77777778  0.00000000  1.234568e-02
  0.44444444  0.88888889  0.00000000  1.234568e-02
  0.55555556  0.00000000  0.00000000  1.234568e-02
  0.55555556  0.11111111  0.00000000  1.234568e-02
  0.55555556  0.22222222  0.00000000  1.234568e-02
  0.55555556  0.33333333  0.00000000  1.234568e-02
  0.55555556  0.44444444  0.00000000  1.234568e-02
  0.55555556  0.55555556  0.00000000  1.234568e-02
  0.55555556  0.66666667  0.00000000  1.234568e-02
  0.55555556  0.77777778  0.00000000  1.234568e-02
  0.55555556  0.88888889  0.00000000  1.234568e-02
  0.66666667  0.00000000  0.00000000  1.234568e-02
  0.66666667  0.11111111  0.00000000  1.234568e-02
  0.66666667  0.22222222  0.00000000  1.234568e-02
  0.66666667  0.33333333  0.00000000  1.234568e-02
  0.66666667  0.44444444  0.00000000  1.234568e-02
  0.66666667  0.55555556  0.00000000  1.234568e-02
  0.66666667  0.66666667  0.00000000  1.234568e-02
  0.66666667  0.77777778  0.00000000  1.234568e-02
  0.66666667  0.88888889  0.00000000  1.234568e-02
  0.77777778  0.00000000  0.00000000  1.234568e-02
  0.77777778  0.11111111  0.00000000  1.234568e-02
  0.77777778  0.22222222  0.00000000  1.234568e-02
  0.77777778  0.33333333  0.00000000  1.234568e-02
  0.77777778  0.44444444  0.00000000  1.234568e-02
  0.77777778  0.55555556  0.00000000  1.234568e-02
  0.77777778  0.66666667  0.00000000  1.234568e-02
  0.77777778  0.77777778  0.00000000  1.234568e-02
  0.77777778  0.88888889  0.00000000  1.234568e-02
  0.88888889  0.00000000  0.00000000  1.234568e-02
  0.88888889  0.11111111  0.00000000  1.234568e-02
  0.88888889  0.22222222  0.00000000  1.234568e-02
  0.88888889  0.33333333  0.00000000  1.234568e-02
  0.88888889  0.44444444  0.00000000  1.234568e-02
  0.88888889  0.55555556  0.00000000  1.234568e-02
  0.88888889  0.66666667  0.00000000  1.234568e-02
  0.88888889  0.77777778  0.00000000  1.234568e-02
  0.88888889  0.88888889  0.00000000  1.234568e-02
