&PROJWFC
  deltae =   2.0000000000d-01
  kresolveddos = .false.
  lbinary_data = .false.
  lsym = .false.
  lwrite_overlaps = .false.
  outdir = './out/'
  plotboxes = .false.
  prefix = 'graphene'
  tdosinboxes = .false.
  filproj = 'graphene.bands.dat.proj'
/
