&bands
  prefix = 'graphene',
  outdir = './out/',
  lsym = .false.,
  filband = 'graphene.bands.dat',
/
