num_wann = 8
num_bands = 60

! use pseudo-atomic orbital projection
auto_projections = .true.

! enable projectability disentanglement
dis_froz_proj = .true.
dis_proj_max =   0.85
dis_proj_min =   0.01

! you can also enable energy window disentanglement, which
! will also freeze states inside inner window, so that those
! states are always reproduced.
fermi_energy =  -2.3043
! dis_froz_max =  0.5

num_iter = 4000
conv_tol =   2.0000000000d-10
conv_window = 3
dis_num_iter = 4000
dis_conv_tol =   2.0000000000d-10

mp_grid = 9, 9, 1

! restart = plot
bands_plot = .true.

begin unit_cell_cart
ang
      2.4600000000       0.0000000000       0.0000000000
     -1.2300000000       2.1304224933       0.0000000000
      0.0000000000       0.0000000000      20.0000000000
end unit_cell_cart

begin atoms_cart
ang
C         0.0000000000       1.4202816622       0.0000000000
C         1.2300000000       0.7101408311       0.0000000000
end atoms_cart

begin kpoint_path
G       0.0000000000       0.0000000000       0.0000000000  M       0.5000000000       0.0000000000       0.0000000000
M       0.5000000000       0.0000000000       0.0000000000  K       0.3333333333       0.3333333333       0.0000000000
K       0.3333333333       0.3333333333       0.0000000000  G       0.0000000000       0.0000000000       0.0000000000
end kpoint_path

begin kpoints
  0.00000000  0.00000000  0.00000000
  0.00000000  0.11111111  0.00000000
  0.00000000  0.22222222  0.00000000
  0.00000000  0.33333333  0.00000000
  0.00000000  0.44444444  0.00000000
  0.00000000  0.55555556  0.00000000
  0.00000000  0.66666667  0.00000000
  0.00000000  0.77777778  0.00000000
  0.00000000  0.88888889  0.00000000
  0.11111111  0.00000000  0.00000000
  0.11111111  0.11111111  0.00000000
  0.11111111  0.22222222  0.00000000
  0.11111111  0.33333333  0.00000000
  0.11111111  0.44444444  0.00000000
  0.11111111  0.55555556  0.00000000
  0.11111111  0.66666667  0.00000000
  0.11111111  0.77777778  0.00000000
  0.11111111  0.88888889  0.00000000
  0.22222222  0.00000000  0.00000000
  0.22222222  0.11111111  0.00000000
  0.22222222  0.22222222  0.00000000
  0.22222222  0.33333333  0.00000000
  0.22222222  0.44444444  0.00000000
  0.22222222  0.55555556  0.00000000
  0.22222222  0.66666667  0.00000000
  0.22222222  0.77777778  0.00000000
  0.22222222  0.88888889  0.00000000
  0.33333333  0.00000000  0.00000000
  0.33333333  0.11111111  0.00000000
  0.33333333  0.22222222  0.00000000
  0.33333333  0.33333333  0.00000000
  0.33333333  0.44444444  0.00000000
  0.33333333  0.55555556  0.00000000
  0.33333333  0.66666667  0.00000000
  0.33333333  0.77777778  0.00000000
  0.33333333  0.88888889  0.00000000
  0.44444444  0.00000000  0.00000000
  0.44444444  0.11111111  0.00000000
  0.44444444  0.22222222  0.00000000
  0.44444444  0.33333333  0.00000000
  0.44444444  0.44444444  0.00000000
  0.44444444  0.55555556  0.00000000
  0.44444444  0.66666667  0.00000000
  0.44444444  0.77777778  0.00000000
  0.44444444  0.88888889  0.00000000
  0.55555556  0.00000000  0.00000000
  0.55555556  0.11111111  0.00000000
  0.55555556  0.22222222  0.00000000
  0.55555556  0.33333333  0.00000000
  0.55555556  0.44444444  0.00000000
  0.55555556  0.55555556  0.00000000
  0.55555556  0.66666667  0.00000000
  0.55555556  0.77777778  0.00000000
  0.55555556  0.88888889  0.00000000
  0.66666667  0.00000000  0.00000000
  0.66666667  0.11111111  0.00000000
  0.66666667  0.22222222  0.00000000
  0.66666667  0.33333333  0.00000000
  0.66666667  0.44444444  0.00000000
  0.66666667  0.55555556  0.00000000
  0.66666667  0.66666667  0.00000000
  0.66666667  0.77777778  0.00000000
  0.66666667  0.88888889  0.00000000
  0.77777778  0.00000000  0.00000000
  0.77777778  0.11111111  0.00000000
  0.77777778  0.22222222  0.00000000
  0.77777778  0.33333333  0.00000000
  0.77777778  0.44444444  0.00000000
  0.77777778  0.55555556  0.00000000
  0.77777778  0.66666667  0.00000000
  0.77777778  0.77777778  0.00000000
  0.77777778  0.88888889  0.00000000
  0.88888889  0.00000000  0.00000000
  0.88888889  0.11111111  0.00000000
  0.88888889  0.22222222  0.00000000
  0.88888889  0.33333333  0.00000000
  0.88888889  0.44444444  0.00000000
  0.88888889  0.55555556  0.00000000
  0.88888889  0.66666667  0.00000000
  0.88888889  0.77777778  0.00000000
  0.88888889  0.88888889  0.00000000
end kpoints
