&CONTROL
  calculation = 'scf'
  etot_conv_thr =   2.0000000000d-05
  forc_conv_thr =   1.0000000000d-04
  outdir = './out/'
  prefix = 'graphene'
  pseudo_dir = '../../pseudo/'
  tprnfor = .true.
  tstress = .true.
  verbosity = 'high'
/
&SYSTEM
  degauss =   1.0000000000d-02
  ecutrho =   1.4700000000d+02
  ecutwfc =   3.7000000000d+01
  ibrav = 0
  nat = 2
  nosym = .false.
  ntyp = 1
  occupations = 'smearing'
  smearing = 'cold'
/
&ELECTRONS
  conv_thr =   4.0000000000d-10
  electron_maxstep = 80
  mixing_beta =   4.0000000000d-01
/
ATOMIC_SPECIES
C      12.011 C.pbe-n-kjpaw_psl.0.1.UPF
ATOMIC_POSITIONS angstrom
C            0.0000000000       1.4202816622       0.0000000000 
C            1.2300000000       0.7101408311       0.0000000000 
K_POINTS automatic
9 9 1 0 0 0
CELL_PARAMETERS angstrom
      2.4600000000       0.0000000000       0.0000000000
     -1.2300000000       2.1304224933       0.0000000000
      0.0000000000       0.0000000000      20.0000000000
