 &control
    calculation     =  'scf'
    restart_mode    =  'from_scratch'
    prefix          =  'InSb'
    pseudo_dir = '.',
    outdir ='.'
    wfcdir = '.'
/
 &system
    ibrav           =   2
    celldm(1)       =  12.245
    nat             =   2
    ntyp            =   2
    ecutwfc         =  40.0
    ecutrho         =  400.00
    occupations     =  'fixed'
/
 &electrons
    conv_thr        =   1.0d-8
    diagonalization =  'cg'
/
ATOMIC_SPECIES
 In 114.82 in_pbesol_v1.uspp.F.UPF
 Sb 121.76 sb_pbesol_v1.uspp.F.UPF
ATOMIC_POSITIONS {crystal}
In   0.00   0.00    0.00
Sb   0.25   0.25    0.25
K_POINTS {automatic}
4 4 4 0 0 0
