&inputpp 
   outdir = './'
   prefix = 'InSb'
   seedname = 'InSb'
   spin_component = 'none'
   write_mmn = .true.
   write_amn = .true.
   write_unk = .false.
   scdm_proj = .true.
   scdm_entanglement = 'isolated'
   scdm_mu = 0.0
   scdm_sigma = 1.0
/
