 &control
    calculation     =  'nscf'
    prefix          =  'InSb'
    pseudo_dir = '.',
    outdir ='.'
    wfcdir = '.'
/
 &system
    ibrav           =   2
    celldm(1)       =  12.245
    nat             =   2
    ntyp            =   2
    nbnd	    =  18
    ecutwfc         =  40.0
    ecutrho         =  400.00
    occupations     =  'fixed'
/
 &electrons
    conv_thr        =   1.0d-8
    diagonalization =  'cg'
/
ATOMIC_SPECIES
 In 114.82 in_pbesol_v1.uspp.F.UPF
 Sb 121.76 sb_pbesol_v1.uspp.F.UPF
ATOMIC_POSITIONS {crystal}
In   0.00   0.00    0.00
Sb   0.25   0.25    0.25
K_POINTS crystal
216
  0.00000000  0.00000000  0.00000000  4.629630e-03
  0.00000000  0.00000000  0.16666667  4.629630e-03
  0.00000000  0.00000000  0.33333333  4.629630e-03
  0.00000000  0.00000000  0.50000000  4.629630e-03
  0.00000000  0.00000000  0.66666667  4.629630e-03
  0.00000000  0.00000000  0.83333333  4.629630e-03
  0.00000000  0.16666667  0.00000000  4.629630e-03
  0.00000000  0.16666667  0.16666667  4.629630e-03
  0.00000000  0.16666667  0.33333333  4.629630e-03
  0.00000000  0.16666667  0.50000000  4.629630e-03
  0.00000000  0.16666667  0.66666667  4.629630e-03
  0.00000000  0.16666667  0.83333333  4.629630e-03
  0.00000000  0.33333333  0.00000000  4.629630e-03
  0.00000000  0.33333333  0.16666667  4.629630e-03
  0.00000000  0.33333333  0.33333333  4.629630e-03
  0.00000000  0.33333333  0.50000000  4.629630e-03
  0.00000000  0.33333333  0.66666667  4.629630e-03
  0.00000000  0.33333333  0.83333333  4.629630e-03
  0.00000000  0.50000000  0.00000000  4.629630e-03
  0.00000000  0.50000000  0.16666667  4.629630e-03
  0.00000000  0.50000000  0.33333333  4.629630e-03
  0.00000000  0.50000000  0.50000000  4.629630e-03
  0.00000000  0.50000000  0.66666667  4.629630e-03
  0.00000000  0.50000000  0.83333333  4.629630e-03
  0.00000000  0.66666667  0.00000000  4.629630e-03
  0.00000000  0.66666667  0.16666667  4.629630e-03
  0.00000000  0.66666667  0.33333333  4.629630e-03
  0.00000000  0.66666667  0.50000000  4.629630e-03
  0.00000000  0.66666667  0.66666667  4.629630e-03
  0.00000000  0.66666667  0.83333333  4.629630e-03
  0.00000000  0.83333333  0.00000000  4.629630e-03
  0.00000000  0.83333333  0.16666667  4.629630e-03
  0.00000000  0.83333333  0.33333333  4.629630e-03
  0.00000000  0.83333333  0.50000000  4.629630e-03
  0.00000000  0.83333333  0.66666667  4.629630e-03
  0.00000000  0.83333333  0.83333333  4.629630e-03
  0.16666667  0.00000000  0.00000000  4.629630e-03
  0.16666667  0.00000000  0.16666667  4.629630e-03
  0.16666667  0.00000000  0.33333333  4.629630e-03
  0.16666667  0.00000000  0.50000000  4.629630e-03
  0.16666667  0.00000000  0.66666667  4.629630e-03
  0.16666667  0.00000000  0.83333333  4.629630e-03
  0.16666667  0.16666667  0.00000000  4.629630e-03
  0.16666667  0.16666667  0.16666667  4.629630e-03
  0.16666667  0.16666667  0.33333333  4.629630e-03
  0.16666667  0.16666667  0.50000000  4.629630e-03
  0.16666667  0.16666667  0.66666667  4.629630e-03
  0.16666667  0.16666667  0.83333333  4.629630e-03
  0.16666667  0.33333333  0.00000000  4.629630e-03
  0.16666667  0.33333333  0.16666667  4.629630e-03
  0.16666667  0.33333333  0.33333333  4.629630e-03
  0.16666667  0.33333333  0.50000000  4.629630e-03
  0.16666667  0.33333333  0.66666667  4.629630e-03
  0.16666667  0.33333333  0.83333333  4.629630e-03
  0.16666667  0.50000000  0.00000000  4.629630e-03
  0.16666667  0.50000000  0.16666667  4.629630e-03
  0.16666667  0.50000000  0.33333333  4.629630e-03
  0.16666667  0.50000000  0.50000000  4.629630e-03
  0.16666667  0.50000000  0.66666667  4.629630e-03
  0.16666667  0.50000000  0.83333333  4.629630e-03
  0.16666667  0.66666667  0.00000000  4.629630e-03
  0.16666667  0.66666667  0.16666667  4.629630e-03
  0.16666667  0.66666667  0.33333333  4.629630e-03
  0.16666667  0.66666667  0.50000000  4.629630e-03
  0.16666667  0.66666667  0.66666667  4.629630e-03
  0.16666667  0.66666667  0.83333333  4.629630e-03
  0.16666667  0.83333333  0.00000000  4.629630e-03
  0.16666667  0.83333333  0.16666667  4.629630e-03
  0.16666667  0.83333333  0.33333333  4.629630e-03
  0.16666667  0.83333333  0.50000000  4.629630e-03
  0.16666667  0.83333333  0.66666667  4.629630e-03
  0.16666667  0.83333333  0.83333333  4.629630e-03
  0.33333333  0.00000000  0.00000000  4.629630e-03
  0.33333333  0.00000000  0.16666667  4.629630e-03
  0.33333333  0.00000000  0.33333333  4.629630e-03
  0.33333333  0.00000000  0.50000000  4.629630e-03
  0.33333333  0.00000000  0.66666667  4.629630e-03
  0.33333333  0.00000000  0.83333333  4.629630e-03
  0.33333333  0.16666667  0.00000000  4.629630e-03
  0.33333333  0.16666667  0.16666667  4.629630e-03
  0.33333333  0.16666667  0.33333333  4.629630e-03
  0.33333333  0.16666667  0.50000000  4.629630e-03
  0.33333333  0.16666667  0.66666667  4.629630e-03
  0.33333333  0.16666667  0.83333333  4.629630e-03
  0.33333333  0.33333333  0.00000000  4.629630e-03
  0.33333333  0.33333333  0.16666667  4.629630e-03
  0.33333333  0.33333333  0.33333333  4.629630e-03
  0.33333333  0.33333333  0.50000000  4.629630e-03
  0.33333333  0.33333333  0.66666667  4.629630e-03
  0.33333333  0.33333333  0.83333333  4.629630e-03
  0.33333333  0.50000000  0.00000000  4.629630e-03
  0.33333333  0.50000000  0.16666667  4.629630e-03
  0.33333333  0.50000000  0.33333333  4.629630e-03
  0.33333333  0.50000000  0.50000000  4.629630e-03
  0.33333333  0.50000000  0.66666667  4.629630e-03
  0.33333333  0.50000000  0.83333333  4.629630e-03
  0.33333333  0.66666667  0.00000000  4.629630e-03
  0.33333333  0.66666667  0.16666667  4.629630e-03
  0.33333333  0.66666667  0.33333333  4.629630e-03
  0.33333333  0.66666667  0.50000000  4.629630e-03
  0.33333333  0.66666667  0.66666667  4.629630e-03
  0.33333333  0.66666667  0.83333333  4.629630e-03
  0.33333333  0.83333333  0.00000000  4.629630e-03
  0.33333333  0.83333333  0.16666667  4.629630e-03
  0.33333333  0.83333333  0.33333333  4.629630e-03
  0.33333333  0.83333333  0.50000000  4.629630e-03
  0.33333333  0.83333333  0.66666667  4.629630e-03
  0.33333333  0.83333333  0.83333333  4.629630e-03
  0.50000000  0.00000000  0.00000000  4.629630e-03
  0.50000000  0.00000000  0.16666667  4.629630e-03
  0.50000000  0.00000000  0.33333333  4.629630e-03
  0.50000000  0.00000000  0.50000000  4.629630e-03
  0.50000000  0.00000000  0.66666667  4.629630e-03
  0.50000000  0.00000000  0.83333333  4.629630e-03
  0.50000000  0.16666667  0.00000000  4.629630e-03
  0.50000000  0.16666667  0.16666667  4.629630e-03
  0.50000000  0.16666667  0.33333333  4.629630e-03
  0.50000000  0.16666667  0.50000000  4.629630e-03
  0.50000000  0.16666667  0.66666667  4.629630e-03
  0.50000000  0.16666667  0.83333333  4.629630e-03
  0.50000000  0.33333333  0.00000000  4.629630e-03
  0.50000000  0.33333333  0.16666667  4.629630e-03
  0.50000000  0.33333333  0.33333333  4.629630e-03
  0.50000000  0.33333333  0.50000000  4.629630e-03
  0.50000000  0.33333333  0.66666667  4.629630e-03
  0.50000000  0.33333333  0.83333333  4.629630e-03
  0.50000000  0.50000000  0.00000000  4.629630e-03
  0.50000000  0.50000000  0.16666667  4.629630e-03
  0.50000000  0.50000000  0.33333333  4.629630e-03
  0.50000000  0.50000000  0.50000000  4.629630e-03
  0.50000000  0.50000000  0.66666667  4.629630e-03
  0.50000000  0.50000000  0.83333333  4.629630e-03
  0.50000000  0.66666667  0.00000000  4.629630e-03
  0.50000000  0.66666667  0.16666667  4.629630e-03
  0.50000000  0.66666667  0.33333333  4.629630e-03
  0.50000000  0.66666667  0.50000000  4.629630e-03
  0.50000000  0.66666667  0.66666667  4.629630e-03
  0.50000000  0.66666667  0.83333333  4.629630e-03
  0.50000000  0.83333333  0.00000000  4.629630e-03
  0.50000000  0.83333333  0.16666667  4.629630e-03
  0.50000000  0.83333333  0.33333333  4.629630e-03
  0.50000000  0.83333333  0.50000000  4.629630e-03
  0.50000000  0.83333333  0.66666667  4.629630e-03
  0.50000000  0.83333333  0.83333333  4.629630e-03
  0.66666667  0.00000000  0.00000000  4.629630e-03
  0.66666667  0.00000000  0.16666667  4.629630e-03
  0.66666667  0.00000000  0.33333333  4.629630e-03
  0.66666667  0.00000000  0.50000000  4.629630e-03
  0.66666667  0.00000000  0.66666667  4.629630e-03
  0.66666667  0.00000000  0.83333333  4.629630e-03
  0.66666667  0.16666667  0.00000000  4.629630e-03
  0.66666667  0.16666667  0.16666667  4.629630e-03
  0.66666667  0.16666667  0.33333333  4.629630e-03
  0.66666667  0.16666667  0.50000000  4.629630e-03
  0.66666667  0.16666667  0.66666667  4.629630e-03
  0.66666667  0.16666667  0.83333333  4.629630e-03
  0.66666667  0.33333333  0.00000000  4.629630e-03
  0.66666667  0.33333333  0.16666667  4.629630e-03
  0.66666667  0.33333333  0.33333333  4.629630e-03
  0.66666667  0.33333333  0.50000000  4.629630e-03
  0.66666667  0.33333333  0.66666667  4.629630e-03
  0.66666667  0.33333333  0.83333333  4.629630e-03
  0.66666667  0.50000000  0.00000000  4.629630e-03
  0.66666667  0.50000000  0.16666667  4.629630e-03
  0.66666667  0.50000000  0.33333333  4.629630e-03
  0.66666667  0.50000000  0.50000000  4.629630e-03
  0.66666667  0.50000000  0.66666667  4.629630e-03
  0.66666667  0.50000000  0.83333333  4.629630e-03
  0.66666667  0.66666667  0.00000000  4.629630e-03
  0.66666667  0.66666667  0.16666667  4.629630e-03
  0.66666667  0.66666667  0.33333333  4.629630e-03
  0.66666667  0.66666667  0.50000000  4.629630e-03
  0.66666667  0.66666667  0.66666667  4.629630e-03
  0.66666667  0.66666667  0.83333333  4.629630e-03
  0.66666667  0.83333333  0.00000000  4.629630e-03
  0.66666667  0.83333333  0.16666667  4.629630e-03
  0.66666667  0.83333333  0.33333333  4.629630e-03
  0.66666667  0.83333333  0.50000000  4.629630e-03
  0.66666667  0.83333333  0.66666667  4.629630e-03
  0.66666667  0.83333333  0.83333333  4.629630e-03
  0.83333333  0.00000000  0.00000000  4.629630e-03
  0.83333333  0.00000000  0.16666667  4.629630e-03
  0.83333333  0.00000000  0.33333333  4.629630e-03
  0.83333333  0.00000000  0.50000000  4.629630e-03
  0.83333333  0.00000000  0.66666667  4.629630e-03
  0.83333333  0.00000000  0.83333333  4.629630e-03
  0.83333333  0.16666667  0.00000000  4.629630e-03
  0.83333333  0.16666667  0.16666667  4.629630e-03
  0.83333333  0.16666667  0.33333333  4.629630e-03
  0.83333333  0.16666667  0.50000000  4.629630e-03
  0.83333333  0.16666667  0.66666667  4.629630e-03
  0.83333333  0.16666667  0.83333333  4.629630e-03
  0.83333333  0.33333333  0.00000000  4.629630e-03
  0.83333333  0.33333333  0.16666667  4.629630e-03
  0.83333333  0.33333333  0.33333333  4.629630e-03
  0.83333333  0.33333333  0.50000000  4.629630e-03
  0.83333333  0.33333333  0.66666667  4.629630e-03
  0.83333333  0.33333333  0.83333333  4.629630e-03
  0.83333333  0.50000000  0.00000000  4.629630e-03
  0.83333333  0.50000000  0.16666667  4.629630e-03
  0.83333333  0.50000000  0.33333333  4.629630e-03
  0.83333333  0.50000000  0.50000000  4.629630e-03
  0.83333333  0.50000000  0.66666667  4.629630e-03
  0.83333333  0.50000000  0.83333333  4.629630e-03
  0.83333333  0.66666667  0.00000000  4.629630e-03
  0.83333333  0.66666667  0.16666667  4.629630e-03
  0.83333333  0.66666667  0.33333333  4.629630e-03
  0.83333333  0.66666667  0.50000000  4.629630e-03
  0.83333333  0.66666667  0.66666667  4.629630e-03
  0.83333333  0.66666667  0.83333333  4.629630e-03
  0.83333333  0.83333333  0.00000000  4.629630e-03
  0.83333333  0.83333333  0.16666667  4.629630e-03
  0.83333333  0.83333333  0.33333333  4.629630e-03
  0.83333333  0.83333333  0.50000000  4.629630e-03
  0.83333333  0.83333333  0.66666667  4.629630e-03
  0.83333333  0.83333333  0.83333333  4.629630e-03
