&inputpp 
 outdir='./'
 prefix='Na'
 seedname='Na'
 spin_component='none'
 write_mmn=.true.
 write_amn=.true.
 write_unk=.false.
/
