&CONTROL
 calculation = 'nscf',
 verbosity = 'high',
 restart_mode = 'from_scratch',
 prefix = 'TaAs',
 tstress = .true.,
 tprnfor = .true.,
 pseudo_dir = '../../pseudo/',
 outdir = './',
 wf_collect = .true.,
/
&SYSTEM
 ibrav = 0,
 celldm(1) = 3.2456043854,
 nat = 4,
 ntyp = 2,
 ecutwfc = 60.0,
 occupations = 'smearing',
 smearing = gaussian,
 degauss = 0.01d0
 noncolin = .true.,
 lspinorb = .true.,
 nbnd = 120,
/
&ELECTRONS
 diagonalization = 'david',
 mixing_mode = 'plain',
 conv_thr = 1.0d-10,
/
ATOMIC_SPECIES
 Ta 180.95 Ta.rel-pbe-spn-kjpaw_psl.0.2.UPF
 As 74.922 As.rel-pbe-n-kjpaw_psl.0.2.UPF
CELL_PARAMETERS {alat}
    -1.000000000   1.000000000   3.388937409
     1.000000000  -1.000000000   3.388937409
     1.000000000   1.000000000   3.388937409
ATOMIC_POSITIONS {crystal}
Ta   0.000000000   0.000000000   0.000000000
Ta   0.250000000   0.750000000   0.500000000
As   0.417000000   0.417000000   0.000000000
As   0.667000000   0.167000000   0.500000000
K_POINTS crystal
512
  0.00000000  0.00000000  0.00000000  1.953125e-03
  0.00000000  0.00000000  0.12500000  1.953125e-03
  0.00000000  0.00000000  0.25000000  1.953125e-03
  0.00000000  0.00000000  0.37500000  1.953125e-03
  0.00000000  0.00000000  0.50000000  1.953125e-03
  0.00000000  0.00000000  0.62500000  1.953125e-03
  0.00000000  0.00000000  0.75000000  1.953125e-03
  0.00000000  0.00000000  0.87500000  1.953125e-03
  0.00000000  0.12500000  0.00000000  1.953125e-03
  0.00000000  0.12500000  0.12500000  1.953125e-03
  0.00000000  0.12500000  0.25000000  1.953125e-03
  0.00000000  0.12500000  0.37500000  1.953125e-03
  0.00000000  0.12500000  0.50000000  1.953125e-03
  0.00000000  0.12500000  0.62500000  1.953125e-03
  0.00000000  0.12500000  0.75000000  1.953125e-03
  0.00000000  0.12500000  0.87500000  1.953125e-03
  0.00000000  0.25000000  0.00000000  1.953125e-03
  0.00000000  0.25000000  0.12500000  1.953125e-03
  0.00000000  0.25000000  0.25000000  1.953125e-03
  0.00000000  0.25000000  0.37500000  1.953125e-03
  0.00000000  0.25000000  0.50000000  1.953125e-03
  0.00000000  0.25000000  0.62500000  1.953125e-03
  0.00000000  0.25000000  0.75000000  1.953125e-03
  0.00000000  0.25000000  0.87500000  1.953125e-03
  0.00000000  0.37500000  0.00000000  1.953125e-03
  0.00000000  0.37500000  0.12500000  1.953125e-03
  0.00000000  0.37500000  0.25000000  1.953125e-03
  0.00000000  0.37500000  0.37500000  1.953125e-03
  0.00000000  0.37500000  0.50000000  1.953125e-03
  0.00000000  0.37500000  0.62500000  1.953125e-03
  0.00000000  0.37500000  0.75000000  1.953125e-03
  0.00000000  0.37500000  0.87500000  1.953125e-03
  0.00000000  0.50000000  0.00000000  1.953125e-03
  0.00000000  0.50000000  0.12500000  1.953125e-03
  0.00000000  0.50000000  0.25000000  1.953125e-03
  0.00000000  0.50000000  0.37500000  1.953125e-03
  0.00000000  0.50000000  0.50000000  1.953125e-03
  0.00000000  0.50000000  0.62500000  1.953125e-03
  0.00000000  0.50000000  0.75000000  1.953125e-03
  0.00000000  0.50000000  0.87500000  1.953125e-03
  0.00000000  0.62500000  0.00000000  1.953125e-03
  0.00000000  0.62500000  0.12500000  1.953125e-03
  0.00000000  0.62500000  0.25000000  1.953125e-03
  0.00000000  0.62500000  0.37500000  1.953125e-03
  0.00000000  0.62500000  0.50000000  1.953125e-03
  0.00000000  0.62500000  0.62500000  1.953125e-03
  0.00000000  0.62500000  0.75000000  1.953125e-03
  0.00000000  0.62500000  0.87500000  1.953125e-03
  0.00000000  0.75000000  0.00000000  1.953125e-03
  0.00000000  0.75000000  0.12500000  1.953125e-03
  0.00000000  0.75000000  0.25000000  1.953125e-03
  0.00000000  0.75000000  0.37500000  1.953125e-03
  0.00000000  0.75000000  0.50000000  1.953125e-03
  0.00000000  0.75000000  0.62500000  1.953125e-03
  0.00000000  0.75000000  0.75000000  1.953125e-03
  0.00000000  0.75000000  0.87500000  1.953125e-03
  0.00000000  0.87500000  0.00000000  1.953125e-03
  0.00000000  0.87500000  0.12500000  1.953125e-03
  0.00000000  0.87500000  0.25000000  1.953125e-03
  0.00000000  0.87500000  0.37500000  1.953125e-03
  0.00000000  0.87500000  0.50000000  1.953125e-03
  0.00000000  0.87500000  0.62500000  1.953125e-03
  0.00000000  0.87500000  0.75000000  1.953125e-03
  0.00000000  0.87500000  0.87500000  1.953125e-03
  0.12500000  0.00000000  0.00000000  1.953125e-03
  0.12500000  0.00000000  0.12500000  1.953125e-03
  0.12500000  0.00000000  0.25000000  1.953125e-03
  0.12500000  0.00000000  0.37500000  1.953125e-03
  0.12500000  0.00000000  0.50000000  1.953125e-03
  0.12500000  0.00000000  0.62500000  1.953125e-03
  0.12500000  0.00000000  0.75000000  1.953125e-03
  0.12500000  0.00000000  0.87500000  1.953125e-03
  0.12500000  0.12500000  0.00000000  1.953125e-03
  0.12500000  0.12500000  0.12500000  1.953125e-03
  0.12500000  0.12500000  0.25000000  1.953125e-03
  0.12500000  0.12500000  0.37500000  1.953125e-03
  0.12500000  0.12500000  0.50000000  1.953125e-03
  0.12500000  0.12500000  0.62500000  1.953125e-03
  0.12500000  0.12500000  0.75000000  1.953125e-03
  0.12500000  0.12500000  0.87500000  1.953125e-03
  0.12500000  0.25000000  0.00000000  1.953125e-03
  0.12500000  0.25000000  0.12500000  1.953125e-03
  0.12500000  0.25000000  0.25000000  1.953125e-03
  0.12500000  0.25000000  0.37500000  1.953125e-03
  0.12500000  0.25000000  0.50000000  1.953125e-03
  0.12500000  0.25000000  0.62500000  1.953125e-03
  0.12500000  0.25000000  0.75000000  1.953125e-03
  0.12500000  0.25000000  0.87500000  1.953125e-03
  0.12500000  0.37500000  0.00000000  1.953125e-03
  0.12500000  0.37500000  0.12500000  1.953125e-03
  0.12500000  0.37500000  0.25000000  1.953125e-03
  0.12500000  0.37500000  0.37500000  1.953125e-03
  0.12500000  0.37500000  0.50000000  1.953125e-03
  0.12500000  0.37500000  0.62500000  1.953125e-03
  0.12500000  0.37500000  0.75000000  1.953125e-03
  0.12500000  0.37500000  0.87500000  1.953125e-03
  0.12500000  0.50000000  0.00000000  1.953125e-03
  0.12500000  0.50000000  0.12500000  1.953125e-03
  0.12500000  0.50000000  0.25000000  1.953125e-03
  0.12500000  0.50000000  0.37500000  1.953125e-03
  0.12500000  0.50000000  0.50000000  1.953125e-03
  0.12500000  0.50000000  0.62500000  1.953125e-03
  0.12500000  0.50000000  0.75000000  1.953125e-03
  0.12500000  0.50000000  0.87500000  1.953125e-03
  0.12500000  0.62500000  0.00000000  1.953125e-03
  0.12500000  0.62500000  0.12500000  1.953125e-03
  0.12500000  0.62500000  0.25000000  1.953125e-03
  0.12500000  0.62500000  0.37500000  1.953125e-03
  0.12500000  0.62500000  0.50000000  1.953125e-03
  0.12500000  0.62500000  0.62500000  1.953125e-03
  0.12500000  0.62500000  0.75000000  1.953125e-03
  0.12500000  0.62500000  0.87500000  1.953125e-03
  0.12500000  0.75000000  0.00000000  1.953125e-03
  0.12500000  0.75000000  0.12500000  1.953125e-03
  0.12500000  0.75000000  0.25000000  1.953125e-03
  0.12500000  0.75000000  0.37500000  1.953125e-03
  0.12500000  0.75000000  0.50000000  1.953125e-03
  0.12500000  0.75000000  0.62500000  1.953125e-03
  0.12500000  0.75000000  0.75000000  1.953125e-03
  0.12500000  0.75000000  0.87500000  1.953125e-03
  0.12500000  0.87500000  0.00000000  1.953125e-03
  0.12500000  0.87500000  0.12500000  1.953125e-03
  0.12500000  0.87500000  0.25000000  1.953125e-03
  0.12500000  0.87500000  0.37500000  1.953125e-03
  0.12500000  0.87500000  0.50000000  1.953125e-03
  0.12500000  0.87500000  0.62500000  1.953125e-03
  0.12500000  0.87500000  0.75000000  1.953125e-03
  0.12500000  0.87500000  0.87500000  1.953125e-03
  0.25000000  0.00000000  0.00000000  1.953125e-03
  0.25000000  0.00000000  0.12500000  1.953125e-03
  0.25000000  0.00000000  0.25000000  1.953125e-03
  0.25000000  0.00000000  0.37500000  1.953125e-03
  0.25000000  0.00000000  0.50000000  1.953125e-03
  0.25000000  0.00000000  0.62500000  1.953125e-03
  0.25000000  0.00000000  0.75000000  1.953125e-03
  0.25000000  0.00000000  0.87500000  1.953125e-03
  0.25000000  0.12500000  0.00000000  1.953125e-03
  0.25000000  0.12500000  0.12500000  1.953125e-03
  0.25000000  0.12500000  0.25000000  1.953125e-03
  0.25000000  0.12500000  0.37500000  1.953125e-03
  0.25000000  0.12500000  0.50000000  1.953125e-03
  0.25000000  0.12500000  0.62500000  1.953125e-03
  0.25000000  0.12500000  0.75000000  1.953125e-03
  0.25000000  0.12500000  0.87500000  1.953125e-03
  0.25000000  0.25000000  0.00000000  1.953125e-03
  0.25000000  0.25000000  0.12500000  1.953125e-03
  0.25000000  0.25000000  0.25000000  1.953125e-03
  0.25000000  0.25000000  0.37500000  1.953125e-03
  0.25000000  0.25000000  0.50000000  1.953125e-03
  0.25000000  0.25000000  0.62500000  1.953125e-03
  0.25000000  0.25000000  0.75000000  1.953125e-03
  0.25000000  0.25000000  0.87500000  1.953125e-03
  0.25000000  0.37500000  0.00000000  1.953125e-03
  0.25000000  0.37500000  0.12500000  1.953125e-03
  0.25000000  0.37500000  0.25000000  1.953125e-03
  0.25000000  0.37500000  0.37500000  1.953125e-03
  0.25000000  0.37500000  0.50000000  1.953125e-03
  0.25000000  0.37500000  0.62500000  1.953125e-03
  0.25000000  0.37500000  0.75000000  1.953125e-03
  0.25000000  0.37500000  0.87500000  1.953125e-03
  0.25000000  0.50000000  0.00000000  1.953125e-03
  0.25000000  0.50000000  0.12500000  1.953125e-03
  0.25000000  0.50000000  0.25000000  1.953125e-03
  0.25000000  0.50000000  0.37500000  1.953125e-03
  0.25000000  0.50000000  0.50000000  1.953125e-03
  0.25000000  0.50000000  0.62500000  1.953125e-03
  0.25000000  0.50000000  0.75000000  1.953125e-03
  0.25000000  0.50000000  0.87500000  1.953125e-03
  0.25000000  0.62500000  0.00000000  1.953125e-03
  0.25000000  0.62500000  0.12500000  1.953125e-03
  0.25000000  0.62500000  0.25000000  1.953125e-03
  0.25000000  0.62500000  0.37500000  1.953125e-03
  0.25000000  0.62500000  0.50000000  1.953125e-03
  0.25000000  0.62500000  0.62500000  1.953125e-03
  0.25000000  0.62500000  0.75000000  1.953125e-03
  0.25000000  0.62500000  0.87500000  1.953125e-03
  0.25000000  0.75000000  0.00000000  1.953125e-03
  0.25000000  0.75000000  0.12500000  1.953125e-03
  0.25000000  0.75000000  0.25000000  1.953125e-03
  0.25000000  0.75000000  0.37500000  1.953125e-03
  0.25000000  0.75000000  0.50000000  1.953125e-03
  0.25000000  0.75000000  0.62500000  1.953125e-03
  0.25000000  0.75000000  0.75000000  1.953125e-03
  0.25000000  0.75000000  0.87500000  1.953125e-03
  0.25000000  0.87500000  0.00000000  1.953125e-03
  0.25000000  0.87500000  0.12500000  1.953125e-03
  0.25000000  0.87500000  0.25000000  1.953125e-03
  0.25000000  0.87500000  0.37500000  1.953125e-03
  0.25000000  0.87500000  0.50000000  1.953125e-03
  0.25000000  0.87500000  0.62500000  1.953125e-03
  0.25000000  0.87500000  0.75000000  1.953125e-03
  0.25000000  0.87500000  0.87500000  1.953125e-03
  0.37500000  0.00000000  0.00000000  1.953125e-03
  0.37500000  0.00000000  0.12500000  1.953125e-03
  0.37500000  0.00000000  0.25000000  1.953125e-03
  0.37500000  0.00000000  0.37500000  1.953125e-03
  0.37500000  0.00000000  0.50000000  1.953125e-03
  0.37500000  0.00000000  0.62500000  1.953125e-03
  0.37500000  0.00000000  0.75000000  1.953125e-03
  0.37500000  0.00000000  0.87500000  1.953125e-03
  0.37500000  0.12500000  0.00000000  1.953125e-03
  0.37500000  0.12500000  0.12500000  1.953125e-03
  0.37500000  0.12500000  0.25000000  1.953125e-03
  0.37500000  0.12500000  0.37500000  1.953125e-03
  0.37500000  0.12500000  0.50000000  1.953125e-03
  0.37500000  0.12500000  0.62500000  1.953125e-03
  0.37500000  0.12500000  0.75000000  1.953125e-03
  0.37500000  0.12500000  0.87500000  1.953125e-03
  0.37500000  0.25000000  0.00000000  1.953125e-03
  0.37500000  0.25000000  0.12500000  1.953125e-03
  0.37500000  0.25000000  0.25000000  1.953125e-03
  0.37500000  0.25000000  0.37500000  1.953125e-03
  0.37500000  0.25000000  0.50000000  1.953125e-03
  0.37500000  0.25000000  0.62500000  1.953125e-03
  0.37500000  0.25000000  0.75000000  1.953125e-03
  0.37500000  0.25000000  0.87500000  1.953125e-03
  0.37500000  0.37500000  0.00000000  1.953125e-03
  0.37500000  0.37500000  0.12500000  1.953125e-03
  0.37500000  0.37500000  0.25000000  1.953125e-03
  0.37500000  0.37500000  0.37500000  1.953125e-03
  0.37500000  0.37500000  0.50000000  1.953125e-03
  0.37500000  0.37500000  0.62500000  1.953125e-03
  0.37500000  0.37500000  0.75000000  1.953125e-03
  0.37500000  0.37500000  0.87500000  1.953125e-03
  0.37500000  0.50000000  0.00000000  1.953125e-03
  0.37500000  0.50000000  0.12500000  1.953125e-03
  0.37500000  0.50000000  0.25000000  1.953125e-03
  0.37500000  0.50000000  0.37500000  1.953125e-03
  0.37500000  0.50000000  0.50000000  1.953125e-03
  0.37500000  0.50000000  0.62500000  1.953125e-03
  0.37500000  0.50000000  0.75000000  1.953125e-03
  0.37500000  0.50000000  0.87500000  1.953125e-03
  0.37500000  0.62500000  0.00000000  1.953125e-03
  0.37500000  0.62500000  0.12500000  1.953125e-03
  0.37500000  0.62500000  0.25000000  1.953125e-03
  0.37500000  0.62500000  0.37500000  1.953125e-03
  0.37500000  0.62500000  0.50000000  1.953125e-03
  0.37500000  0.62500000  0.62500000  1.953125e-03
  0.37500000  0.62500000  0.75000000  1.953125e-03
  0.37500000  0.62500000  0.87500000  1.953125e-03
  0.37500000  0.75000000  0.00000000  1.953125e-03
  0.37500000  0.75000000  0.12500000  1.953125e-03
  0.37500000  0.75000000  0.25000000  1.953125e-03
  0.37500000  0.75000000  0.37500000  1.953125e-03
  0.37500000  0.75000000  0.50000000  1.953125e-03
  0.37500000  0.75000000  0.62500000  1.953125e-03
  0.37500000  0.75000000  0.75000000  1.953125e-03
  0.37500000  0.75000000  0.87500000  1.953125e-03
  0.37500000  0.87500000  0.00000000  1.953125e-03
  0.37500000  0.87500000  0.12500000  1.953125e-03
  0.37500000  0.87500000  0.25000000  1.953125e-03
  0.37500000  0.87500000  0.37500000  1.953125e-03
  0.37500000  0.87500000  0.50000000  1.953125e-03
  0.37500000  0.87500000  0.62500000  1.953125e-03
  0.37500000  0.87500000  0.75000000  1.953125e-03
  0.37500000  0.87500000  0.87500000  1.953125e-03
  0.50000000  0.00000000  0.00000000  1.953125e-03
  0.50000000  0.00000000  0.12500000  1.953125e-03
  0.50000000  0.00000000  0.25000000  1.953125e-03
  0.50000000  0.00000000  0.37500000  1.953125e-03
  0.50000000  0.00000000  0.50000000  1.953125e-03
  0.50000000  0.00000000  0.62500000  1.953125e-03
  0.50000000  0.00000000  0.75000000  1.953125e-03
  0.50000000  0.00000000  0.87500000  1.953125e-03
  0.50000000  0.12500000  0.00000000  1.953125e-03
  0.50000000  0.12500000  0.12500000  1.953125e-03
  0.50000000  0.12500000  0.25000000  1.953125e-03
  0.50000000  0.12500000  0.37500000  1.953125e-03
  0.50000000  0.12500000  0.50000000  1.953125e-03
  0.50000000  0.12500000  0.62500000  1.953125e-03
  0.50000000  0.12500000  0.75000000  1.953125e-03
  0.50000000  0.12500000  0.87500000  1.953125e-03
  0.50000000  0.25000000  0.00000000  1.953125e-03
  0.50000000  0.25000000  0.12500000  1.953125e-03
  0.50000000  0.25000000  0.25000000  1.953125e-03
  0.50000000  0.25000000  0.37500000  1.953125e-03
  0.50000000  0.25000000  0.50000000  1.953125e-03
  0.50000000  0.25000000  0.62500000  1.953125e-03
  0.50000000  0.25000000  0.75000000  1.953125e-03
  0.50000000  0.25000000  0.87500000  1.953125e-03
  0.50000000  0.37500000  0.00000000  1.953125e-03
  0.50000000  0.37500000  0.12500000  1.953125e-03
  0.50000000  0.37500000  0.25000000  1.953125e-03
  0.50000000  0.37500000  0.37500000  1.953125e-03
  0.50000000  0.37500000  0.50000000  1.953125e-03
  0.50000000  0.37500000  0.62500000  1.953125e-03
  0.50000000  0.37500000  0.75000000  1.953125e-03
  0.50000000  0.37500000  0.87500000  1.953125e-03
  0.50000000  0.50000000  0.00000000  1.953125e-03
  0.50000000  0.50000000  0.12500000  1.953125e-03
  0.50000000  0.50000000  0.25000000  1.953125e-03
  0.50000000  0.50000000  0.37500000  1.953125e-03
  0.50000000  0.50000000  0.50000000  1.953125e-03
  0.50000000  0.50000000  0.62500000  1.953125e-03
  0.50000000  0.50000000  0.75000000  1.953125e-03
  0.50000000  0.50000000  0.87500000  1.953125e-03
  0.50000000  0.62500000  0.00000000  1.953125e-03
  0.50000000  0.62500000  0.12500000  1.953125e-03
  0.50000000  0.62500000  0.25000000  1.953125e-03
  0.50000000  0.62500000  0.37500000  1.953125e-03
  0.50000000  0.62500000  0.50000000  1.953125e-03
  0.50000000  0.62500000  0.62500000  1.953125e-03
  0.50000000  0.62500000  0.75000000  1.953125e-03
  0.50000000  0.62500000  0.87500000  1.953125e-03
  0.50000000  0.75000000  0.00000000  1.953125e-03
  0.50000000  0.75000000  0.12500000  1.953125e-03
  0.50000000  0.75000000  0.25000000  1.953125e-03
  0.50000000  0.75000000  0.37500000  1.953125e-03
  0.50000000  0.75000000  0.50000000  1.953125e-03
  0.50000000  0.75000000  0.62500000  1.953125e-03
  0.50000000  0.75000000  0.75000000  1.953125e-03
  0.50000000  0.75000000  0.87500000  1.953125e-03
  0.50000000  0.87500000  0.00000000  1.953125e-03
  0.50000000  0.87500000  0.12500000  1.953125e-03
  0.50000000  0.87500000  0.25000000  1.953125e-03
  0.50000000  0.87500000  0.37500000  1.953125e-03
  0.50000000  0.87500000  0.50000000  1.953125e-03
  0.50000000  0.87500000  0.62500000  1.953125e-03
  0.50000000  0.87500000  0.75000000  1.953125e-03
  0.50000000  0.87500000  0.87500000  1.953125e-03
  0.62500000  0.00000000  0.00000000  1.953125e-03
  0.62500000  0.00000000  0.12500000  1.953125e-03
  0.62500000  0.00000000  0.25000000  1.953125e-03
  0.62500000  0.00000000  0.37500000  1.953125e-03
  0.62500000  0.00000000  0.50000000  1.953125e-03
  0.62500000  0.00000000  0.62500000  1.953125e-03
  0.62500000  0.00000000  0.75000000  1.953125e-03
  0.62500000  0.00000000  0.87500000  1.953125e-03
  0.62500000  0.12500000  0.00000000  1.953125e-03
  0.62500000  0.12500000  0.12500000  1.953125e-03
  0.62500000  0.12500000  0.25000000  1.953125e-03
  0.62500000  0.12500000  0.37500000  1.953125e-03
  0.62500000  0.12500000  0.50000000  1.953125e-03
  0.62500000  0.12500000  0.62500000  1.953125e-03
  0.62500000  0.12500000  0.75000000  1.953125e-03
  0.62500000  0.12500000  0.87500000  1.953125e-03
  0.62500000  0.25000000  0.00000000  1.953125e-03
  0.62500000  0.25000000  0.12500000  1.953125e-03
  0.62500000  0.25000000  0.25000000  1.953125e-03
  0.62500000  0.25000000  0.37500000  1.953125e-03
  0.62500000  0.25000000  0.50000000  1.953125e-03
  0.62500000  0.25000000  0.62500000  1.953125e-03
  0.62500000  0.25000000  0.75000000  1.953125e-03
  0.62500000  0.25000000  0.87500000  1.953125e-03
  0.62500000  0.37500000  0.00000000  1.953125e-03
  0.62500000  0.37500000  0.12500000  1.953125e-03
  0.62500000  0.37500000  0.25000000  1.953125e-03
  0.62500000  0.37500000  0.37500000  1.953125e-03
  0.62500000  0.37500000  0.50000000  1.953125e-03
  0.62500000  0.37500000  0.62500000  1.953125e-03
  0.62500000  0.37500000  0.75000000  1.953125e-03
  0.62500000  0.37500000  0.87500000  1.953125e-03
  0.62500000  0.50000000  0.00000000  1.953125e-03
  0.62500000  0.50000000  0.12500000  1.953125e-03
  0.62500000  0.50000000  0.25000000  1.953125e-03
  0.62500000  0.50000000  0.37500000  1.953125e-03
  0.62500000  0.50000000  0.50000000  1.953125e-03
  0.62500000  0.50000000  0.62500000  1.953125e-03
  0.62500000  0.50000000  0.75000000  1.953125e-03
  0.62500000  0.50000000  0.87500000  1.953125e-03
  0.62500000  0.62500000  0.00000000  1.953125e-03
  0.62500000  0.62500000  0.12500000  1.953125e-03
  0.62500000  0.62500000  0.25000000  1.953125e-03
  0.62500000  0.62500000  0.37500000  1.953125e-03
  0.62500000  0.62500000  0.50000000  1.953125e-03
  0.62500000  0.62500000  0.62500000  1.953125e-03
  0.62500000  0.62500000  0.75000000  1.953125e-03
  0.62500000  0.62500000  0.87500000  1.953125e-03
  0.62500000  0.75000000  0.00000000  1.953125e-03
  0.62500000  0.75000000  0.12500000  1.953125e-03
  0.62500000  0.75000000  0.25000000  1.953125e-03
  0.62500000  0.75000000  0.37500000  1.953125e-03
  0.62500000  0.75000000  0.50000000  1.953125e-03
  0.62500000  0.75000000  0.62500000  1.953125e-03
  0.62500000  0.75000000  0.75000000  1.953125e-03
  0.62500000  0.75000000  0.87500000  1.953125e-03
  0.62500000  0.87500000  0.00000000  1.953125e-03
  0.62500000  0.87500000  0.12500000  1.953125e-03
  0.62500000  0.87500000  0.25000000  1.953125e-03
  0.62500000  0.87500000  0.37500000  1.953125e-03
  0.62500000  0.87500000  0.50000000  1.953125e-03
  0.62500000  0.87500000  0.62500000  1.953125e-03
  0.62500000  0.87500000  0.75000000  1.953125e-03
  0.62500000  0.87500000  0.87500000  1.953125e-03
  0.75000000  0.00000000  0.00000000  1.953125e-03
  0.75000000  0.00000000  0.12500000  1.953125e-03
  0.75000000  0.00000000  0.25000000  1.953125e-03
  0.75000000  0.00000000  0.37500000  1.953125e-03
  0.75000000  0.00000000  0.50000000  1.953125e-03
  0.75000000  0.00000000  0.62500000  1.953125e-03
  0.75000000  0.00000000  0.75000000  1.953125e-03
  0.75000000  0.00000000  0.87500000  1.953125e-03
  0.75000000  0.12500000  0.00000000  1.953125e-03
  0.75000000  0.12500000  0.12500000  1.953125e-03
  0.75000000  0.12500000  0.25000000  1.953125e-03
  0.75000000  0.12500000  0.37500000  1.953125e-03
  0.75000000  0.12500000  0.50000000  1.953125e-03
  0.75000000  0.12500000  0.62500000  1.953125e-03
  0.75000000  0.12500000  0.75000000  1.953125e-03
  0.75000000  0.12500000  0.87500000  1.953125e-03
  0.75000000  0.25000000  0.00000000  1.953125e-03
  0.75000000  0.25000000  0.12500000  1.953125e-03
  0.75000000  0.25000000  0.25000000  1.953125e-03
  0.75000000  0.25000000  0.37500000  1.953125e-03
  0.75000000  0.25000000  0.50000000  1.953125e-03
  0.75000000  0.25000000  0.62500000  1.953125e-03
  0.75000000  0.25000000  0.75000000  1.953125e-03
  0.75000000  0.25000000  0.87500000  1.953125e-03
  0.75000000  0.37500000  0.00000000  1.953125e-03
  0.75000000  0.37500000  0.12500000  1.953125e-03
  0.75000000  0.37500000  0.25000000  1.953125e-03
  0.75000000  0.37500000  0.37500000  1.953125e-03
  0.75000000  0.37500000  0.50000000  1.953125e-03
  0.75000000  0.37500000  0.62500000  1.953125e-03
  0.75000000  0.37500000  0.75000000  1.953125e-03
  0.75000000  0.37500000  0.87500000  1.953125e-03
  0.75000000  0.50000000  0.00000000  1.953125e-03
  0.75000000  0.50000000  0.12500000  1.953125e-03
  0.75000000  0.50000000  0.25000000  1.953125e-03
  0.75000000  0.50000000  0.37500000  1.953125e-03
  0.75000000  0.50000000  0.50000000  1.953125e-03
  0.75000000  0.50000000  0.62500000  1.953125e-03
  0.75000000  0.50000000  0.75000000  1.953125e-03
  0.75000000  0.50000000  0.87500000  1.953125e-03
  0.75000000  0.62500000  0.00000000  1.953125e-03
  0.75000000  0.62500000  0.12500000  1.953125e-03
  0.75000000  0.62500000  0.25000000  1.953125e-03
  0.75000000  0.62500000  0.37500000  1.953125e-03
  0.75000000  0.62500000  0.50000000  1.953125e-03
  0.75000000  0.62500000  0.62500000  1.953125e-03
  0.75000000  0.62500000  0.75000000  1.953125e-03
  0.75000000  0.62500000  0.87500000  1.953125e-03
  0.75000000  0.75000000  0.00000000  1.953125e-03
  0.75000000  0.75000000  0.12500000  1.953125e-03
  0.75000000  0.75000000  0.25000000  1.953125e-03
  0.75000000  0.75000000  0.37500000  1.953125e-03
  0.75000000  0.75000000  0.50000000  1.953125e-03
  0.75000000  0.75000000  0.62500000  1.953125e-03
  0.75000000  0.75000000  0.75000000  1.953125e-03
  0.75000000  0.75000000  0.87500000  1.953125e-03
  0.75000000  0.87500000  0.00000000  1.953125e-03
  0.75000000  0.87500000  0.12500000  1.953125e-03
  0.75000000  0.87500000  0.25000000  1.953125e-03
  0.75000000  0.87500000  0.37500000  1.953125e-03
  0.75000000  0.87500000  0.50000000  1.953125e-03
  0.75000000  0.87500000  0.62500000  1.953125e-03
  0.75000000  0.87500000  0.75000000  1.953125e-03
  0.75000000  0.87500000  0.87500000  1.953125e-03
  0.87500000  0.00000000  0.00000000  1.953125e-03
  0.87500000  0.00000000  0.12500000  1.953125e-03
  0.87500000  0.00000000  0.25000000  1.953125e-03
  0.87500000  0.00000000  0.37500000  1.953125e-03
  0.87500000  0.00000000  0.50000000  1.953125e-03
  0.87500000  0.00000000  0.62500000  1.953125e-03
  0.87500000  0.00000000  0.75000000  1.953125e-03
  0.87500000  0.00000000  0.87500000  1.953125e-03
  0.87500000  0.12500000  0.00000000  1.953125e-03
  0.87500000  0.12500000  0.12500000  1.953125e-03
  0.87500000  0.12500000  0.25000000  1.953125e-03
  0.87500000  0.12500000  0.37500000  1.953125e-03
  0.87500000  0.12500000  0.50000000  1.953125e-03
  0.87500000  0.12500000  0.62500000  1.953125e-03
  0.87500000  0.12500000  0.75000000  1.953125e-03
  0.87500000  0.12500000  0.87500000  1.953125e-03
  0.87500000  0.25000000  0.00000000  1.953125e-03
  0.87500000  0.25000000  0.12500000  1.953125e-03
  0.87500000  0.25000000  0.25000000  1.953125e-03
  0.87500000  0.25000000  0.37500000  1.953125e-03
  0.87500000  0.25000000  0.50000000  1.953125e-03
  0.87500000  0.25000000  0.62500000  1.953125e-03
  0.87500000  0.25000000  0.75000000  1.953125e-03
  0.87500000  0.25000000  0.87500000  1.953125e-03
  0.87500000  0.37500000  0.00000000  1.953125e-03
  0.87500000  0.37500000  0.12500000  1.953125e-03
  0.87500000  0.37500000  0.25000000  1.953125e-03
  0.87500000  0.37500000  0.37500000  1.953125e-03
  0.87500000  0.37500000  0.50000000  1.953125e-03
  0.87500000  0.37500000  0.62500000  1.953125e-03
  0.87500000  0.37500000  0.75000000  1.953125e-03
  0.87500000  0.37500000  0.87500000  1.953125e-03
  0.87500000  0.50000000  0.00000000  1.953125e-03
  0.87500000  0.50000000  0.12500000  1.953125e-03
  0.87500000  0.50000000  0.25000000  1.953125e-03
  0.87500000  0.50000000  0.37500000  1.953125e-03
  0.87500000  0.50000000  0.50000000  1.953125e-03
  0.87500000  0.50000000  0.62500000  1.953125e-03
  0.87500000  0.50000000  0.75000000  1.953125e-03
  0.87500000  0.50000000  0.87500000  1.953125e-03
  0.87500000  0.62500000  0.00000000  1.953125e-03
  0.87500000  0.62500000  0.12500000  1.953125e-03
  0.87500000  0.62500000  0.25000000  1.953125e-03
  0.87500000  0.62500000  0.37500000  1.953125e-03
  0.87500000  0.62500000  0.50000000  1.953125e-03
  0.87500000  0.62500000  0.62500000  1.953125e-03
  0.87500000  0.62500000  0.75000000  1.953125e-03
  0.87500000  0.62500000  0.87500000  1.953125e-03
  0.87500000  0.75000000  0.00000000  1.953125e-03
  0.87500000  0.75000000  0.12500000  1.953125e-03
  0.87500000  0.75000000  0.25000000  1.953125e-03
  0.87500000  0.75000000  0.37500000  1.953125e-03
  0.87500000  0.75000000  0.50000000  1.953125e-03
  0.87500000  0.75000000  0.62500000  1.953125e-03
  0.87500000  0.75000000  0.75000000  1.953125e-03
  0.87500000  0.75000000  0.87500000  1.953125e-03
  0.87500000  0.87500000  0.00000000  1.953125e-03
  0.87500000  0.87500000  0.12500000  1.953125e-03
  0.87500000  0.87500000  0.25000000  1.953125e-03
  0.87500000  0.87500000  0.37500000  1.953125e-03
  0.87500000  0.87500000  0.50000000  1.953125e-03
  0.87500000  0.87500000  0.62500000  1.953125e-03
  0.87500000  0.87500000  0.75000000  1.953125e-03
  0.87500000  0.87500000  0.87500000  1.953125e-03