!!! -- Begin of NERWann input -- !!!
nerwann                    = true 
ner_tdf_smr_type          = f-d
smr_fixed_en_width          = 0.025
ner_tdf_smr_fixed_en_width = 0.025
adpt_smr                     = false
kmesh                        = 10  
ner_mu_min                 = 6.58 
ner_mu_max                 = 8.68 
ner_mu_step                = 0.01 
ner_temp_min               = 300.0
ner_temp_max               = 301.0
ner_temp_step              = 50
ner_relax_time             = 10.
ner_bext			   = 0.00 0.00 2.00 
!!! --- End of NERWann input --- !!!


bands_plot        = true
bands_plot_format = gnuplot
bands_num_points = 40
num_bands         = 4    
num_wann          = 4
exclude_bands     = 1-10,15-18
auto_projections  = .true.


begin unit_cell_cart
Bohr
3.7868985	-2.18636584897	6.18398252911
0.00	4.37273169795	6.18398252911
-3.7868985	-2.18636584897	6.18398252911
end unit_cell_cart

begin atoms_frac
Zn   0.00   0.00    0.00
Se   0.25   0.25    0.25
End atoms_frac
    

write_hr		= .true. !To Write Hamiltonian

begin kpoint_path
W 0.25 0.75 0.50 L 0.50 0.50 0.50
L 0.50 0.50 0.50 G 0.00 0.00 0.00
G 0.00 0.00 0.00 X 0.00 0.50 0.50
X 0.00 0.50 0.50 W 0.25 0.75 0.50
end kpoint_path

mp_grid =8 8 8

begin kpoints
  0.00000000  0.00000000  0.00000000  1.953125e-03 
  0.00000000  0.00000000  0.12500000  1.953125e-03 
  0.00000000  0.00000000  0.25000000  1.953125e-03 
  0.00000000  0.00000000  0.37500000  1.953125e-03 
  0.00000000  0.00000000  0.50000000  1.953125e-03 
  0.00000000  0.00000000  0.62500000  1.953125e-03 
  0.00000000  0.00000000  0.75000000  1.953125e-03 
  0.00000000  0.00000000  0.87500000  1.953125e-03 
  0.00000000  0.12500000  0.00000000  1.953125e-03 
  0.00000000  0.12500000  0.12500000  1.953125e-03 
  0.00000000  0.12500000  0.25000000  1.953125e-03 
  0.00000000  0.12500000  0.37500000  1.953125e-03 
  0.00000000  0.12500000  0.50000000  1.953125e-03 
  0.00000000  0.12500000  0.62500000  1.953125e-03 
  0.00000000  0.12500000  0.75000000  1.953125e-03 
  0.00000000  0.12500000  0.87500000  1.953125e-03 
  0.00000000  0.25000000  0.00000000  1.953125e-03 
  0.00000000  0.25000000  0.12500000  1.953125e-03 
  0.00000000  0.25000000  0.25000000  1.953125e-03 
  0.00000000  0.25000000  0.37500000  1.953125e-03 
  0.00000000  0.25000000  0.50000000  1.953125e-03 
  0.00000000  0.25000000  0.62500000  1.953125e-03 
  0.00000000  0.25000000  0.75000000  1.953125e-03 
  0.00000000  0.25000000  0.87500000  1.953125e-03 
  0.00000000  0.37500000  0.00000000  1.953125e-03 
  0.00000000  0.37500000  0.12500000  1.953125e-03 
  0.00000000  0.37500000  0.25000000  1.953125e-03 
  0.00000000  0.37500000  0.37500000  1.953125e-03 
  0.00000000  0.37500000  0.50000000  1.953125e-03 
  0.00000000  0.37500000  0.62500000  1.953125e-03 
  0.00000000  0.37500000  0.75000000  1.953125e-03 
  0.00000000  0.37500000  0.87500000  1.953125e-03 
  0.00000000  0.50000000  0.00000000  1.953125e-03 
  0.00000000  0.50000000  0.12500000  1.953125e-03 
  0.00000000  0.50000000  0.25000000  1.953125e-03 
  0.00000000  0.50000000  0.37500000  1.953125e-03 
  0.00000000  0.50000000  0.50000000  1.953125e-03 
  0.00000000  0.50000000  0.62500000  1.953125e-03 
  0.00000000  0.50000000  0.75000000  1.953125e-03 
  0.00000000  0.50000000  0.87500000  1.953125e-03 
  0.00000000  0.62500000  0.00000000  1.953125e-03 
  0.00000000  0.62500000  0.12500000  1.953125e-03 
  0.00000000  0.62500000  0.25000000  1.953125e-03 
  0.00000000  0.62500000  0.37500000  1.953125e-03 
  0.00000000  0.62500000  0.50000000  1.953125e-03 
  0.00000000  0.62500000  0.62500000  1.953125e-03 
  0.00000000  0.62500000  0.75000000  1.953125e-03 
  0.00000000  0.62500000  0.87500000  1.953125e-03 
  0.00000000  0.75000000  0.00000000  1.953125e-03 
  0.00000000  0.75000000  0.12500000  1.953125e-03 
  0.00000000  0.75000000  0.25000000  1.953125e-03 
  0.00000000  0.75000000  0.37500000  1.953125e-03 
  0.00000000  0.75000000  0.50000000  1.953125e-03 
  0.00000000  0.75000000  0.62500000  1.953125e-03 
  0.00000000  0.75000000  0.75000000  1.953125e-03 
  0.00000000  0.75000000  0.87500000  1.953125e-03 
  0.00000000  0.87500000  0.00000000  1.953125e-03 
  0.00000000  0.87500000  0.12500000  1.953125e-03 
  0.00000000  0.87500000  0.25000000  1.953125e-03 
  0.00000000  0.87500000  0.37500000  1.953125e-03 
  0.00000000  0.87500000  0.50000000  1.953125e-03 
  0.00000000  0.87500000  0.62500000  1.953125e-03 
  0.00000000  0.87500000  0.75000000  1.953125e-03 
  0.00000000  0.87500000  0.87500000  1.953125e-03 
  0.12500000  0.00000000  0.00000000  1.953125e-03 
  0.12500000  0.00000000  0.12500000  1.953125e-03 
  0.12500000  0.00000000  0.25000000  1.953125e-03 
  0.12500000  0.00000000  0.37500000  1.953125e-03 
  0.12500000  0.00000000  0.50000000  1.953125e-03 
  0.12500000  0.00000000  0.62500000  1.953125e-03 
  0.12500000  0.00000000  0.75000000  1.953125e-03 
  0.12500000  0.00000000  0.87500000  1.953125e-03 
  0.12500000  0.12500000  0.00000000  1.953125e-03 
  0.12500000  0.12500000  0.12500000  1.953125e-03 
  0.12500000  0.12500000  0.25000000  1.953125e-03 
  0.12500000  0.12500000  0.37500000  1.953125e-03 
  0.12500000  0.12500000  0.50000000  1.953125e-03 
  0.12500000  0.12500000  0.62500000  1.953125e-03 
  0.12500000  0.12500000  0.75000000  1.953125e-03 
  0.12500000  0.12500000  0.87500000  1.953125e-03 
  0.12500000  0.25000000  0.00000000  1.953125e-03 
  0.12500000  0.25000000  0.12500000  1.953125e-03 
  0.12500000  0.25000000  0.25000000  1.953125e-03 
  0.12500000  0.25000000  0.37500000  1.953125e-03 
  0.12500000  0.25000000  0.50000000  1.953125e-03 
  0.12500000  0.25000000  0.62500000  1.953125e-03 
  0.12500000  0.25000000  0.75000000  1.953125e-03 
  0.12500000  0.25000000  0.87500000  1.953125e-03 
  0.12500000  0.37500000  0.00000000  1.953125e-03 
  0.12500000  0.37500000  0.12500000  1.953125e-03 
  0.12500000  0.37500000  0.25000000  1.953125e-03 
  0.12500000  0.37500000  0.37500000  1.953125e-03 
  0.12500000  0.37500000  0.50000000  1.953125e-03 
  0.12500000  0.37500000  0.62500000  1.953125e-03 
  0.12500000  0.37500000  0.75000000  1.953125e-03 
  0.12500000  0.37500000  0.87500000  1.953125e-03 
  0.12500000  0.50000000  0.00000000  1.953125e-03 
  0.12500000  0.50000000  0.12500000  1.953125e-03 
  0.12500000  0.50000000  0.25000000  1.953125e-03 
  0.12500000  0.50000000  0.37500000  1.953125e-03 
  0.12500000  0.50000000  0.50000000  1.953125e-03 
  0.12500000  0.50000000  0.62500000  1.953125e-03 
  0.12500000  0.50000000  0.75000000  1.953125e-03 
  0.12500000  0.50000000  0.87500000  1.953125e-03 
  0.12500000  0.62500000  0.00000000  1.953125e-03 
  0.12500000  0.62500000  0.12500000  1.953125e-03 
  0.12500000  0.62500000  0.25000000  1.953125e-03 
  0.12500000  0.62500000  0.37500000  1.953125e-03 
  0.12500000  0.62500000  0.50000000  1.953125e-03 
  0.12500000  0.62500000  0.62500000  1.953125e-03 
  0.12500000  0.62500000  0.75000000  1.953125e-03 
  0.12500000  0.62500000  0.87500000  1.953125e-03 
  0.12500000  0.75000000  0.00000000  1.953125e-03 
  0.12500000  0.75000000  0.12500000  1.953125e-03 
  0.12500000  0.75000000  0.25000000  1.953125e-03 
  0.12500000  0.75000000  0.37500000  1.953125e-03 
  0.12500000  0.75000000  0.50000000  1.953125e-03 
  0.12500000  0.75000000  0.62500000  1.953125e-03 
  0.12500000  0.75000000  0.75000000  1.953125e-03 
  0.12500000  0.75000000  0.87500000  1.953125e-03 
  0.12500000  0.87500000  0.00000000  1.953125e-03 
  0.12500000  0.87500000  0.12500000  1.953125e-03 
  0.12500000  0.87500000  0.25000000  1.953125e-03 
  0.12500000  0.87500000  0.37500000  1.953125e-03 
  0.12500000  0.87500000  0.50000000  1.953125e-03 
  0.12500000  0.87500000  0.62500000  1.953125e-03 
  0.12500000  0.87500000  0.75000000  1.953125e-03 
  0.12500000  0.87500000  0.87500000  1.953125e-03 
  0.25000000  0.00000000  0.00000000  1.953125e-03 
  0.25000000  0.00000000  0.12500000  1.953125e-03 
  0.25000000  0.00000000  0.25000000  1.953125e-03 
  0.25000000  0.00000000  0.37500000  1.953125e-03 
  0.25000000  0.00000000  0.50000000  1.953125e-03 
  0.25000000  0.00000000  0.62500000  1.953125e-03 
  0.25000000  0.00000000  0.75000000  1.953125e-03 
  0.25000000  0.00000000  0.87500000  1.953125e-03 
  0.25000000  0.12500000  0.00000000  1.953125e-03 
  0.25000000  0.12500000  0.12500000  1.953125e-03 
  0.25000000  0.12500000  0.25000000  1.953125e-03 
  0.25000000  0.12500000  0.37500000  1.953125e-03 
  0.25000000  0.12500000  0.50000000  1.953125e-03 
  0.25000000  0.12500000  0.62500000  1.953125e-03 
  0.25000000  0.12500000  0.75000000  1.953125e-03 
  0.25000000  0.12500000  0.87500000  1.953125e-03 
  0.25000000  0.25000000  0.00000000  1.953125e-03 
  0.25000000  0.25000000  0.12500000  1.953125e-03 
  0.25000000  0.25000000  0.25000000  1.953125e-03 
  0.25000000  0.25000000  0.37500000  1.953125e-03 
  0.25000000  0.25000000  0.50000000  1.953125e-03 
  0.25000000  0.25000000  0.62500000  1.953125e-03 
  0.25000000  0.25000000  0.75000000  1.953125e-03 
  0.25000000  0.25000000  0.87500000  1.953125e-03 
  0.25000000  0.37500000  0.00000000  1.953125e-03 
  0.25000000  0.37500000  0.12500000  1.953125e-03 
  0.25000000  0.37500000  0.25000000  1.953125e-03 
  0.25000000  0.37500000  0.37500000  1.953125e-03 
  0.25000000  0.37500000  0.50000000  1.953125e-03 
  0.25000000  0.37500000  0.62500000  1.953125e-03 
  0.25000000  0.37500000  0.75000000  1.953125e-03 
  0.25000000  0.37500000  0.87500000  1.953125e-03 
  0.25000000  0.50000000  0.00000000  1.953125e-03 
  0.25000000  0.50000000  0.12500000  1.953125e-03 
  0.25000000  0.50000000  0.25000000  1.953125e-03 
  0.25000000  0.50000000  0.37500000  1.953125e-03 
  0.25000000  0.50000000  0.50000000  1.953125e-03 
  0.25000000  0.50000000  0.62500000  1.953125e-03 
  0.25000000  0.50000000  0.75000000  1.953125e-03 
  0.25000000  0.50000000  0.87500000  1.953125e-03 
  0.25000000  0.62500000  0.00000000  1.953125e-03 
  0.25000000  0.62500000  0.12500000  1.953125e-03 
  0.25000000  0.62500000  0.25000000  1.953125e-03 
  0.25000000  0.62500000  0.37500000  1.953125e-03 
  0.25000000  0.62500000  0.50000000  1.953125e-03 
  0.25000000  0.62500000  0.62500000  1.953125e-03 
  0.25000000  0.62500000  0.75000000  1.953125e-03 
  0.25000000  0.62500000  0.87500000  1.953125e-03 
  0.25000000  0.75000000  0.00000000  1.953125e-03 
  0.25000000  0.75000000  0.12500000  1.953125e-03 
  0.25000000  0.75000000  0.25000000  1.953125e-03 
  0.25000000  0.75000000  0.37500000  1.953125e-03 
  0.25000000  0.75000000  0.50000000  1.953125e-03 
  0.25000000  0.75000000  0.62500000  1.953125e-03 
  0.25000000  0.75000000  0.75000000  1.953125e-03 
  0.25000000  0.75000000  0.87500000  1.953125e-03 
  0.25000000  0.87500000  0.00000000  1.953125e-03 
  0.25000000  0.87500000  0.12500000  1.953125e-03 
  0.25000000  0.87500000  0.25000000  1.953125e-03 
  0.25000000  0.87500000  0.37500000  1.953125e-03 
  0.25000000  0.87500000  0.50000000  1.953125e-03 
  0.25000000  0.87500000  0.62500000  1.953125e-03 
  0.25000000  0.87500000  0.75000000  1.953125e-03 
  0.25000000  0.87500000  0.87500000  1.953125e-03 
  0.37500000  0.00000000  0.00000000  1.953125e-03 
  0.37500000  0.00000000  0.12500000  1.953125e-03 
  0.37500000  0.00000000  0.25000000  1.953125e-03 
  0.37500000  0.00000000  0.37500000  1.953125e-03 
  0.37500000  0.00000000  0.50000000  1.953125e-03 
  0.37500000  0.00000000  0.62500000  1.953125e-03 
  0.37500000  0.00000000  0.75000000  1.953125e-03 
  0.37500000  0.00000000  0.87500000  1.953125e-03 
  0.37500000  0.12500000  0.00000000  1.953125e-03 
  0.37500000  0.12500000  0.12500000  1.953125e-03 
  0.37500000  0.12500000  0.25000000  1.953125e-03 
  0.37500000  0.12500000  0.37500000  1.953125e-03 
  0.37500000  0.12500000  0.50000000  1.953125e-03 
  0.37500000  0.12500000  0.62500000  1.953125e-03 
  0.37500000  0.12500000  0.75000000  1.953125e-03 
  0.37500000  0.12500000  0.87500000  1.953125e-03 
  0.37500000  0.25000000  0.00000000  1.953125e-03 
  0.37500000  0.25000000  0.12500000  1.953125e-03 
  0.37500000  0.25000000  0.25000000  1.953125e-03 
  0.37500000  0.25000000  0.37500000  1.953125e-03 
  0.37500000  0.25000000  0.50000000  1.953125e-03 
  0.37500000  0.25000000  0.62500000  1.953125e-03 
  0.37500000  0.25000000  0.75000000  1.953125e-03 
  0.37500000  0.25000000  0.87500000  1.953125e-03 
  0.37500000  0.37500000  0.00000000  1.953125e-03 
  0.37500000  0.37500000  0.12500000  1.953125e-03 
  0.37500000  0.37500000  0.25000000  1.953125e-03 
  0.37500000  0.37500000  0.37500000  1.953125e-03 
  0.37500000  0.37500000  0.50000000  1.953125e-03 
  0.37500000  0.37500000  0.62500000  1.953125e-03 
  0.37500000  0.37500000  0.75000000  1.953125e-03 
  0.37500000  0.37500000  0.87500000  1.953125e-03 
  0.37500000  0.50000000  0.00000000  1.953125e-03 
  0.37500000  0.50000000  0.12500000  1.953125e-03 
  0.37500000  0.50000000  0.25000000  1.953125e-03 
  0.37500000  0.50000000  0.37500000  1.953125e-03 
  0.37500000  0.50000000  0.50000000  1.953125e-03 
  0.37500000  0.50000000  0.62500000  1.953125e-03 
  0.37500000  0.50000000  0.75000000  1.953125e-03 
  0.37500000  0.50000000  0.87500000  1.953125e-03 
  0.37500000  0.62500000  0.00000000  1.953125e-03 
  0.37500000  0.62500000  0.12500000  1.953125e-03 
  0.37500000  0.62500000  0.25000000  1.953125e-03 
  0.37500000  0.62500000  0.37500000  1.953125e-03 
  0.37500000  0.62500000  0.50000000  1.953125e-03 
  0.37500000  0.62500000  0.62500000  1.953125e-03 
  0.37500000  0.62500000  0.75000000  1.953125e-03 
  0.37500000  0.62500000  0.87500000  1.953125e-03 
  0.37500000  0.75000000  0.00000000  1.953125e-03 
  0.37500000  0.75000000  0.12500000  1.953125e-03 
  0.37500000  0.75000000  0.25000000  1.953125e-03 
  0.37500000  0.75000000  0.37500000  1.953125e-03 
  0.37500000  0.75000000  0.50000000  1.953125e-03 
  0.37500000  0.75000000  0.62500000  1.953125e-03 
  0.37500000  0.75000000  0.75000000  1.953125e-03 
  0.37500000  0.75000000  0.87500000  1.953125e-03 
  0.37500000  0.87500000  0.00000000  1.953125e-03 
  0.37500000  0.87500000  0.12500000  1.953125e-03 
  0.37500000  0.87500000  0.25000000  1.953125e-03 
  0.37500000  0.87500000  0.37500000  1.953125e-03 
  0.37500000  0.87500000  0.50000000  1.953125e-03 
  0.37500000  0.87500000  0.62500000  1.953125e-03 
  0.37500000  0.87500000  0.75000000  1.953125e-03 
  0.37500000  0.87500000  0.87500000  1.953125e-03 
  0.50000000  0.00000000  0.00000000  1.953125e-03 
  0.50000000  0.00000000  0.12500000  1.953125e-03 
  0.50000000  0.00000000  0.25000000  1.953125e-03 
  0.50000000  0.00000000  0.37500000  1.953125e-03 
  0.50000000  0.00000000  0.50000000  1.953125e-03 
  0.50000000  0.00000000  0.62500000  1.953125e-03 
  0.50000000  0.00000000  0.75000000  1.953125e-03 
  0.50000000  0.00000000  0.87500000  1.953125e-03 
  0.50000000  0.12500000  0.00000000  1.953125e-03 
  0.50000000  0.12500000  0.12500000  1.953125e-03 
  0.50000000  0.12500000  0.25000000  1.953125e-03 
  0.50000000  0.12500000  0.37500000  1.953125e-03 
  0.50000000  0.12500000  0.50000000  1.953125e-03 
  0.50000000  0.12500000  0.62500000  1.953125e-03 
  0.50000000  0.12500000  0.75000000  1.953125e-03 
  0.50000000  0.12500000  0.87500000  1.953125e-03 
  0.50000000  0.25000000  0.00000000  1.953125e-03 
  0.50000000  0.25000000  0.12500000  1.953125e-03 
  0.50000000  0.25000000  0.25000000  1.953125e-03 
  0.50000000  0.25000000  0.37500000  1.953125e-03 
  0.50000000  0.25000000  0.50000000  1.953125e-03 
  0.50000000  0.25000000  0.62500000  1.953125e-03 
  0.50000000  0.25000000  0.75000000  1.953125e-03 
  0.50000000  0.25000000  0.87500000  1.953125e-03 
  0.50000000  0.37500000  0.00000000  1.953125e-03 
  0.50000000  0.37500000  0.12500000  1.953125e-03 
  0.50000000  0.37500000  0.25000000  1.953125e-03 
  0.50000000  0.37500000  0.37500000  1.953125e-03 
  0.50000000  0.37500000  0.50000000  1.953125e-03 
  0.50000000  0.37500000  0.62500000  1.953125e-03 
  0.50000000  0.37500000  0.75000000  1.953125e-03 
  0.50000000  0.37500000  0.87500000  1.953125e-03 
  0.50000000  0.50000000  0.00000000  1.953125e-03 
  0.50000000  0.50000000  0.12500000  1.953125e-03 
  0.50000000  0.50000000  0.25000000  1.953125e-03 
  0.50000000  0.50000000  0.37500000  1.953125e-03 
  0.50000000  0.50000000  0.50000000  1.953125e-03 
  0.50000000  0.50000000  0.62500000  1.953125e-03 
  0.50000000  0.50000000  0.75000000  1.953125e-03 
  0.50000000  0.50000000  0.87500000  1.953125e-03 
  0.50000000  0.62500000  0.00000000  1.953125e-03 
  0.50000000  0.62500000  0.12500000  1.953125e-03 
  0.50000000  0.62500000  0.25000000  1.953125e-03 
  0.50000000  0.62500000  0.37500000  1.953125e-03 
  0.50000000  0.62500000  0.50000000  1.953125e-03 
  0.50000000  0.62500000  0.62500000  1.953125e-03 
  0.50000000  0.62500000  0.75000000  1.953125e-03 
  0.50000000  0.62500000  0.87500000  1.953125e-03 
  0.50000000  0.75000000  0.00000000  1.953125e-03 
  0.50000000  0.75000000  0.12500000  1.953125e-03 
  0.50000000  0.75000000  0.25000000  1.953125e-03 
  0.50000000  0.75000000  0.37500000  1.953125e-03 
  0.50000000  0.75000000  0.50000000  1.953125e-03 
  0.50000000  0.75000000  0.62500000  1.953125e-03 
  0.50000000  0.75000000  0.75000000  1.953125e-03 
  0.50000000  0.75000000  0.87500000  1.953125e-03 
  0.50000000  0.87500000  0.00000000  1.953125e-03 
  0.50000000  0.87500000  0.12500000  1.953125e-03 
  0.50000000  0.87500000  0.25000000  1.953125e-03 
  0.50000000  0.87500000  0.37500000  1.953125e-03 
  0.50000000  0.87500000  0.50000000  1.953125e-03 
  0.50000000  0.87500000  0.62500000  1.953125e-03 
  0.50000000  0.87500000  0.75000000  1.953125e-03 
  0.50000000  0.87500000  0.87500000  1.953125e-03 
  0.62500000  0.00000000  0.00000000  1.953125e-03 
  0.62500000  0.00000000  0.12500000  1.953125e-03 
  0.62500000  0.00000000  0.25000000  1.953125e-03 
  0.62500000  0.00000000  0.37500000  1.953125e-03 
  0.62500000  0.00000000  0.50000000  1.953125e-03 
  0.62500000  0.00000000  0.62500000  1.953125e-03 
  0.62500000  0.00000000  0.75000000  1.953125e-03 
  0.62500000  0.00000000  0.87500000  1.953125e-03 
  0.62500000  0.12500000  0.00000000  1.953125e-03 
  0.62500000  0.12500000  0.12500000  1.953125e-03 
  0.62500000  0.12500000  0.25000000  1.953125e-03 
  0.62500000  0.12500000  0.37500000  1.953125e-03 
  0.62500000  0.12500000  0.50000000  1.953125e-03 
  0.62500000  0.12500000  0.62500000  1.953125e-03 
  0.62500000  0.12500000  0.75000000  1.953125e-03 
  0.62500000  0.12500000  0.87500000  1.953125e-03 
  0.62500000  0.25000000  0.00000000  1.953125e-03 
  0.62500000  0.25000000  0.12500000  1.953125e-03 
  0.62500000  0.25000000  0.25000000  1.953125e-03 
  0.62500000  0.25000000  0.37500000  1.953125e-03 
  0.62500000  0.25000000  0.50000000  1.953125e-03 
  0.62500000  0.25000000  0.62500000  1.953125e-03 
  0.62500000  0.25000000  0.75000000  1.953125e-03 
  0.62500000  0.25000000  0.87500000  1.953125e-03 
  0.62500000  0.37500000  0.00000000  1.953125e-03 
  0.62500000  0.37500000  0.12500000  1.953125e-03 
  0.62500000  0.37500000  0.25000000  1.953125e-03 
  0.62500000  0.37500000  0.37500000  1.953125e-03 
  0.62500000  0.37500000  0.50000000  1.953125e-03 
  0.62500000  0.37500000  0.62500000  1.953125e-03 
  0.62500000  0.37500000  0.75000000  1.953125e-03 
  0.62500000  0.37500000  0.87500000  1.953125e-03 
  0.62500000  0.50000000  0.00000000  1.953125e-03 
  0.62500000  0.50000000  0.12500000  1.953125e-03 
  0.62500000  0.50000000  0.25000000  1.953125e-03 
  0.62500000  0.50000000  0.37500000  1.953125e-03 
  0.62500000  0.50000000  0.50000000  1.953125e-03 
  0.62500000  0.50000000  0.62500000  1.953125e-03 
  0.62500000  0.50000000  0.75000000  1.953125e-03 
  0.62500000  0.50000000  0.87500000  1.953125e-03 
  0.62500000  0.62500000  0.00000000  1.953125e-03 
  0.62500000  0.62500000  0.12500000  1.953125e-03 
  0.62500000  0.62500000  0.25000000  1.953125e-03 
  0.62500000  0.62500000  0.37500000  1.953125e-03 
  0.62500000  0.62500000  0.50000000  1.953125e-03 
  0.62500000  0.62500000  0.62500000  1.953125e-03 
  0.62500000  0.62500000  0.75000000  1.953125e-03 
  0.62500000  0.62500000  0.87500000  1.953125e-03 
  0.62500000  0.75000000  0.00000000  1.953125e-03 
  0.62500000  0.75000000  0.12500000  1.953125e-03 
  0.62500000  0.75000000  0.25000000  1.953125e-03 
  0.62500000  0.75000000  0.37500000  1.953125e-03 
  0.62500000  0.75000000  0.50000000  1.953125e-03 
  0.62500000  0.75000000  0.62500000  1.953125e-03 
  0.62500000  0.75000000  0.75000000  1.953125e-03 
  0.62500000  0.75000000  0.87500000  1.953125e-03 
  0.62500000  0.87500000  0.00000000  1.953125e-03 
  0.62500000  0.87500000  0.12500000  1.953125e-03 
  0.62500000  0.87500000  0.25000000  1.953125e-03 
  0.62500000  0.87500000  0.37500000  1.953125e-03 
  0.62500000  0.87500000  0.50000000  1.953125e-03 
  0.62500000  0.87500000  0.62500000  1.953125e-03 
  0.62500000  0.87500000  0.75000000  1.953125e-03 
  0.62500000  0.87500000  0.87500000  1.953125e-03 
  0.75000000  0.00000000  0.00000000  1.953125e-03 
  0.75000000  0.00000000  0.12500000  1.953125e-03 
  0.75000000  0.00000000  0.25000000  1.953125e-03 
  0.75000000  0.00000000  0.37500000  1.953125e-03 
  0.75000000  0.00000000  0.50000000  1.953125e-03 
  0.75000000  0.00000000  0.62500000  1.953125e-03 
  0.75000000  0.00000000  0.75000000  1.953125e-03 
  0.75000000  0.00000000  0.87500000  1.953125e-03 
  0.75000000  0.12500000  0.00000000  1.953125e-03 
  0.75000000  0.12500000  0.12500000  1.953125e-03 
  0.75000000  0.12500000  0.25000000  1.953125e-03 
  0.75000000  0.12500000  0.37500000  1.953125e-03 
  0.75000000  0.12500000  0.50000000  1.953125e-03 
  0.75000000  0.12500000  0.62500000  1.953125e-03 
  0.75000000  0.12500000  0.75000000  1.953125e-03 
  0.75000000  0.12500000  0.87500000  1.953125e-03 
  0.75000000  0.25000000  0.00000000  1.953125e-03 
  0.75000000  0.25000000  0.12500000  1.953125e-03 
  0.75000000  0.25000000  0.25000000  1.953125e-03 
  0.75000000  0.25000000  0.37500000  1.953125e-03 
  0.75000000  0.25000000  0.50000000  1.953125e-03 
  0.75000000  0.25000000  0.62500000  1.953125e-03 
  0.75000000  0.25000000  0.75000000  1.953125e-03 
  0.75000000  0.25000000  0.87500000  1.953125e-03 
  0.75000000  0.37500000  0.00000000  1.953125e-03 
  0.75000000  0.37500000  0.12500000  1.953125e-03 
  0.75000000  0.37500000  0.25000000  1.953125e-03 
  0.75000000  0.37500000  0.37500000  1.953125e-03 
  0.75000000  0.37500000  0.50000000  1.953125e-03 
  0.75000000  0.37500000  0.62500000  1.953125e-03 
  0.75000000  0.37500000  0.75000000  1.953125e-03 
  0.75000000  0.37500000  0.87500000  1.953125e-03 
  0.75000000  0.50000000  0.00000000  1.953125e-03 
  0.75000000  0.50000000  0.12500000  1.953125e-03 
  0.75000000  0.50000000  0.25000000  1.953125e-03 
  0.75000000  0.50000000  0.37500000  1.953125e-03 
  0.75000000  0.50000000  0.50000000  1.953125e-03 
  0.75000000  0.50000000  0.62500000  1.953125e-03 
  0.75000000  0.50000000  0.75000000  1.953125e-03 
  0.75000000  0.50000000  0.87500000  1.953125e-03 
  0.75000000  0.62500000  0.00000000  1.953125e-03 
  0.75000000  0.62500000  0.12500000  1.953125e-03 
  0.75000000  0.62500000  0.25000000  1.953125e-03 
  0.75000000  0.62500000  0.37500000  1.953125e-03 
  0.75000000  0.62500000  0.50000000  1.953125e-03 
  0.75000000  0.62500000  0.62500000  1.953125e-03 
  0.75000000  0.62500000  0.75000000  1.953125e-03 
  0.75000000  0.62500000  0.87500000  1.953125e-03 
  0.75000000  0.75000000  0.00000000  1.953125e-03 
  0.75000000  0.75000000  0.12500000  1.953125e-03 
  0.75000000  0.75000000  0.25000000  1.953125e-03 
  0.75000000  0.75000000  0.37500000  1.953125e-03 
  0.75000000  0.75000000  0.50000000  1.953125e-03 
  0.75000000  0.75000000  0.62500000  1.953125e-03 
  0.75000000  0.75000000  0.75000000  1.953125e-03 
  0.75000000  0.75000000  0.87500000  1.953125e-03 
  0.75000000  0.87500000  0.00000000  1.953125e-03 
  0.75000000  0.87500000  0.12500000  1.953125e-03 
  0.75000000  0.87500000  0.25000000  1.953125e-03 
  0.75000000  0.87500000  0.37500000  1.953125e-03 
  0.75000000  0.87500000  0.50000000  1.953125e-03 
  0.75000000  0.87500000  0.62500000  1.953125e-03 
  0.75000000  0.87500000  0.75000000  1.953125e-03 
  0.75000000  0.87500000  0.87500000  1.953125e-03 
  0.87500000  0.00000000  0.00000000  1.953125e-03 
  0.87500000  0.00000000  0.12500000  1.953125e-03 
  0.87500000  0.00000000  0.25000000  1.953125e-03 
  0.87500000  0.00000000  0.37500000  1.953125e-03 
  0.87500000  0.00000000  0.50000000  1.953125e-03 
  0.87500000  0.00000000  0.62500000  1.953125e-03 
  0.87500000  0.00000000  0.75000000  1.953125e-03 
  0.87500000  0.00000000  0.87500000  1.953125e-03 
  0.87500000  0.12500000  0.00000000  1.953125e-03 
  0.87500000  0.12500000  0.12500000  1.953125e-03 
  0.87500000  0.12500000  0.25000000  1.953125e-03 
  0.87500000  0.12500000  0.37500000  1.953125e-03 
  0.87500000  0.12500000  0.50000000  1.953125e-03 
  0.87500000  0.12500000  0.62500000  1.953125e-03 
  0.87500000  0.12500000  0.75000000  1.953125e-03 
  0.87500000  0.12500000  0.87500000  1.953125e-03 
  0.87500000  0.25000000  0.00000000  1.953125e-03 
  0.87500000  0.25000000  0.12500000  1.953125e-03 
  0.87500000  0.25000000  0.25000000  1.953125e-03 
  0.87500000  0.25000000  0.37500000  1.953125e-03 
  0.87500000  0.25000000  0.50000000  1.953125e-03 
  0.87500000  0.25000000  0.62500000  1.953125e-03 
  0.87500000  0.25000000  0.75000000  1.953125e-03 
  0.87500000  0.25000000  0.87500000  1.953125e-03 
  0.87500000  0.37500000  0.00000000  1.953125e-03 
  0.87500000  0.37500000  0.12500000  1.953125e-03 
  0.87500000  0.37500000  0.25000000  1.953125e-03 
  0.87500000  0.37500000  0.37500000  1.953125e-03 
  0.87500000  0.37500000  0.50000000  1.953125e-03 
  0.87500000  0.37500000  0.62500000  1.953125e-03 
  0.87500000  0.37500000  0.75000000  1.953125e-03 
  0.87500000  0.37500000  0.87500000  1.953125e-03 
  0.87500000  0.50000000  0.00000000  1.953125e-03 
  0.87500000  0.50000000  0.12500000  1.953125e-03 
  0.87500000  0.50000000  0.25000000  1.953125e-03 
  0.87500000  0.50000000  0.37500000  1.953125e-03 
  0.87500000  0.50000000  0.50000000  1.953125e-03 
  0.87500000  0.50000000  0.62500000  1.953125e-03 
  0.87500000  0.50000000  0.75000000  1.953125e-03 
  0.87500000  0.50000000  0.87500000  1.953125e-03 
  0.87500000  0.62500000  0.00000000  1.953125e-03 
  0.87500000  0.62500000  0.12500000  1.953125e-03 
  0.87500000  0.62500000  0.25000000  1.953125e-03 
  0.87500000  0.62500000  0.37500000  1.953125e-03 
  0.87500000  0.62500000  0.50000000  1.953125e-03 
  0.87500000  0.62500000  0.62500000  1.953125e-03 
  0.87500000  0.62500000  0.75000000  1.953125e-03 
  0.87500000  0.62500000  0.87500000  1.953125e-03 
  0.87500000  0.75000000  0.00000000  1.953125e-03 
  0.87500000  0.75000000  0.12500000  1.953125e-03 
  0.87500000  0.75000000  0.25000000  1.953125e-03 
  0.87500000  0.75000000  0.37500000  1.953125e-03 
  0.87500000  0.75000000  0.50000000  1.953125e-03 
  0.87500000  0.75000000  0.62500000  1.953125e-03 
  0.87500000  0.75000000  0.75000000  1.953125e-03 
  0.87500000  0.75000000  0.87500000  1.953125e-03 
  0.87500000  0.87500000  0.00000000  1.953125e-03 
  0.87500000  0.87500000  0.12500000  1.953125e-03 
  0.87500000  0.87500000  0.25000000  1.953125e-03 
  0.87500000  0.87500000  0.37500000  1.953125e-03 
  0.87500000  0.87500000  0.50000000  1.953125e-03 
  0.87500000  0.87500000  0.62500000  1.953125e-03 
  0.87500000  0.87500000  0.75000000  1.953125e-03 
  0.87500000  0.87500000  0.87500000  1.953125e-03  
end kpoints

