num_bands         =   28        
num_wann          =   18 
use_ws_distance = .false.
search_shells=12

dis_win_min       = -8.0d0       
dis_win_max       = 70.0d0
dis_froz_min      = -8.0d0
dis_froz_max      =  30.0d0
dis_num_iter      =  500 

num_iter          = 200 
dis_mix_ratio = 1.0

spinors = true
begin projections
Fe: sp3d2;dxy;dxz;dyz
end projections

fermi_energy = 12.6279 

uHu_formatted = .true.

!berry = true
berry_task = ahc+morb
berry_kmesh = 10 10 10 

!kpath = true
kpath_task = bands+morb+curv
kpath_num_points=10
begin kpoint_path
G 0.0000 0.0000 0.0000   H 0.500 -0.5000 -0.5000
H 0.500 -0.5000 -0.5000  P 0.7500 0.2500 -0.2500
end kpoint_path

kslice = true
kslice_task = curv+fermi_lines
kslice_2dkmesh = 5 5
kslice_corner = 0.0  0.0  0.0
kslice_b1 =     0.5 -0.5 -0.5
kslice_b2 =     0.5  0.5  0.5

begin unit_cell_cart
bohr
 2.71175  2.71175 2.71175
-2.71175  2.71175 2.71175
-2.71175 -2.71175 2.71175
end unit_cell_cart

begin atoms_frac
Fe  0.000  0.000  0.000
end atoms_frac

mp_grid           = 2 2 2 

begin kpoints
  0.00000000  0.00000000  0.00000000 
  0.00000000  0.00000000  0.50000000 
  0.00000000  0.50000000  0.00000000 
  0.00000000  0.50000000  0.50000000 
  0.50000000  0.00000000  0.00000000 
  0.50000000  0.00000000  0.50000000 
  0.50000000  0.50000000  0.00000000 
  0.50000000  0.50000000  0.50000000 
end kpoints
