num_bands         =   4
num_wann          =   4

!===========  additional input for symmetry-adapted mode
site_symmetry = .true.
symmetrize_eps=  1d-9
!===========

begin projections
f= 0.0, 0.0, 0.0 : s
f= 0.0, 0.0, 0.0 : p
end projections

write_hr = .true.
bands_plot = .true.
wannier_plot = .true.

wannier_plot_supercell = 2

exclude_bands= 1-5, 10-18

begin kpoint_path
L   0.50000     0.50000     0.50000   G   0.00000     0.00000     0.00000
G   0.00000     0.00000     0.00000   X   0.50000     0.00000     0.50000
X   0.50000     0.00000     0.50000   W   0.50000     0.25000     0.75000
W   0.50000     0.25000     0.75000   L   0.50000     0.50000     0.50000
L   0.50000     0.50000     0.50000   K   0.75000     0.37500     0.37500
K   0.75000     0.37500     0.37500   G   0.00000     0.00000     0.00000
end kpoint_path

begin unit_cell_cart
bohr
-5.34 0.0 5.34
0.0 5.34 5.34
-5.34 5.34 0.0
end unit_cell_cart

begin atoms_frac
Ga 0.00  0.00  0.00
As 0.25  0.25  0.25
end atoms_frac

mp_grid           = 4 4 4

begin kpoints
0	0	0	0.015625
0.25	0	0	0.015625
0.5	0	0	0.015625
0.75	0	0	0.015625
0	0.25	0	0.015625
0.25	0.25	0	0.015625
0.5	0.25	0	0.015625
0.75	0.25	0	0.015625
0	0.5	0	0.015625
0.25	0.5	0	0.015625
0.5	0.5	0	0.015625
0.75	0.5	0	0.015625
0	0.75	0	0.015625
0.25	0.75	0	0.015625
0.5	0.75	0	0.015625
0.75	0.75	0	0.015625
0	0	0.25	0.015625
0.25	0	0.25	0.015625
0.5	0	0.25	0.015625
0.75	0	0.25	0.015625
0	0.25	0.25	0.015625
0.25	0.25	0.25	0.015625
0.5	0.25	0.25	0.015625
0.75	0.25	0.25	0.015625
0	0.5	0.25	0.015625
0.25	0.5	0.25	0.015625
0.5	0.5	0.25	0.015625
0.75	0.5	0.25	0.015625
0	0.75	0.25	0.015625
0.25	0.75	0.25	0.015625
0.5	0.75	0.25	0.015625
0.75	0.75	0.25	0.015625
0	0	0.5	0.015625
0.25	0	0.5	0.015625
0.5	0	0.5	0.015625
0.75	0	0.5	0.015625
0	0.25	0.5	0.015625
0.25	0.25	0.5	0.015625
0.5	0.25	0.5	0.015625
0.75	0.25	0.5	0.015625
0	0.5	0.5	0.015625
0.25	0.5	0.5	0.015625
0.5	0.5	0.5	0.015625
0.75	0.5	0.5	0.015625
0	0.75	0.5	0.015625
0.25	0.75	0.5	0.015625
0.5	0.75	0.5	0.015625
0.75	0.75	0.5	0.015625
0	0	0.75	0.015625
0.25	0	0.75	0.015625
0.5	0	0.75	0.015625
0.75	0	0.75	0.015625
0	0.25	0.75	0.015625
0.25	0.25	0.75	0.015625
0.5	0.25	0.75	0.015625
0.75	0.25	0.75	0.015625
0	0.5	0.75	0.015625
0.25	0.5	0.75	0.015625
0.5	0.5	0.75	0.015625
0.75	0.5	0.75	0.015625
0	0.75	0.75	0.015625
0.25	0.75	0.75	0.015625
0.5	0.75	0.75	0.015625
0.75	0.75	0.75	0.015625
end kpoints
