&inputpp
    outdir='./work'
    prefix='GaAs',
    seedname = 'GaAs'
    write_unk = .true.
    write_dmb = .true. ! additional input for symmetry-adapted mode
/
