 &INPUTPP
   outdir               =  './',
   prefix               =  'SrMnO3',
   seedname             =  'SrMnO3-t2g',
 /


