 &INPUTPP
   outdir               =  './',
   prefix               =  'SrMnO3',
   seedname             =  'SrMnO3-eg',
 /


