 &INPUTPP
   outdir               =  './',
   prefix               =  'SrMnO3',
   seedname             =  'SrMnO3-d',
   write_unk            =  .false.
 /


