&inputpp 
   outdir = './'
   prefix = 'Fe'
   seedname = 'iron_dn'
   spin_component = 'down'
   write_mmn = .true.
   write_amn = .true.
   write_unk = .false.
/
