 &control
    calculation='nscf'
    restart_mode='from_scratch',
    pseudo_dir = '../../pseudo/',
    outdir='./'
    prefix='Fe'
 /
 &system
    ibrav = 3, celldm(1) =5.4235, nat= 1, ntyp= 1,
    ecutwfc =120.0, nspin = 2, nbnd= 14, ecutrho=800.0 
    starting_magnetization = -1, nosym=.true.
    occupations='smearing', smearing='cold', degauss=0.02
 /
 &electrons
    conv_thr = 1.0e-8
 /
ATOMIC_SPECIES
 Fe 55.85 Fe.jry.pbe.UPF
ATOMIC_POSITIONS
 Fe 0.0 0.0 0.0
K_POINTS {crystal}
512
  0.00000000  0.00000000  0.00000000  1.953125e-03 
  0.00000000  0.00000000  0.12500000  1.953125e-03 
  0.00000000  0.00000000  0.25000000  1.953125e-03 
  0.00000000  0.00000000  0.37500000  1.953125e-03 
  0.00000000  0.00000000  0.50000000  1.953125e-03 
  0.00000000  0.00000000  0.62500000  1.953125e-03 
  0.00000000  0.00000000  0.75000000  1.953125e-03 
  0.00000000  0.00000000  0.87500000  1.953125e-03 
  0.00000000  0.12500000  0.00000000  1.953125e-03 
  0.00000000  0.12500000  0.12500000  1.953125e-03 
  0.00000000  0.12500000  0.25000000  1.953125e-03 
  0.00000000  0.12500000  0.37500000  1.953125e-03 
  0.00000000  0.12500000  0.50000000  1.953125e-03 
  0.00000000  0.12500000  0.62500000  1.953125e-03 
  0.00000000  0.12500000  0.75000000  1.953125e-03 
  0.00000000  0.12500000  0.87500000  1.953125e-03 
  0.00000000  0.25000000  0.00000000  1.953125e-03 
  0.00000000  0.25000000  0.12500000  1.953125e-03 
  0.00000000  0.25000000  0.25000000  1.953125e-03 
  0.00000000  0.25000000  0.37500000  1.953125e-03 
  0.00000000  0.25000000  0.50000000  1.953125e-03 
  0.00000000  0.25000000  0.62500000  1.953125e-03 
  0.00000000  0.25000000  0.75000000  1.953125e-03 
  0.00000000  0.25000000  0.87500000  1.953125e-03 
  0.00000000  0.37500000  0.00000000  1.953125e-03 
  0.00000000  0.37500000  0.12500000  1.953125e-03 
  0.00000000  0.37500000  0.25000000  1.953125e-03 
  0.00000000  0.37500000  0.37500000  1.953125e-03 
  0.00000000  0.37500000  0.50000000  1.953125e-03 
  0.00000000  0.37500000  0.62500000  1.953125e-03 
  0.00000000  0.37500000  0.75000000  1.953125e-03 
  0.00000000  0.37500000  0.87500000  1.953125e-03 
  0.00000000  0.50000000  0.00000000  1.953125e-03 
  0.00000000  0.50000000  0.12500000  1.953125e-03 
  0.00000000  0.50000000  0.25000000  1.953125e-03 
  0.00000000  0.50000000  0.37500000  1.953125e-03 
  0.00000000  0.50000000  0.50000000  1.953125e-03 
  0.00000000  0.50000000  0.62500000  1.953125e-03 
  0.00000000  0.50000000  0.75000000  1.953125e-03 
  0.00000000  0.50000000  0.87500000  1.953125e-03 
  0.00000000  0.62500000  0.00000000  1.953125e-03 
  0.00000000  0.62500000  0.12500000  1.953125e-03 
  0.00000000  0.62500000  0.25000000  1.953125e-03 
  0.00000000  0.62500000  0.37500000  1.953125e-03 
  0.00000000  0.62500000  0.50000000  1.953125e-03 
  0.00000000  0.62500000  0.62500000  1.953125e-03 
  0.00000000  0.62500000  0.75000000  1.953125e-03 
  0.00000000  0.62500000  0.87500000  1.953125e-03 
  0.00000000  0.75000000  0.00000000  1.953125e-03 
  0.00000000  0.75000000  0.12500000  1.953125e-03 
  0.00000000  0.75000000  0.25000000  1.953125e-03 
  0.00000000  0.75000000  0.37500000  1.953125e-03 
  0.00000000  0.75000000  0.50000000  1.953125e-03 
  0.00000000  0.75000000  0.62500000  1.953125e-03 
  0.00000000  0.75000000  0.75000000  1.953125e-03 
  0.00000000  0.75000000  0.87500000  1.953125e-03 
  0.00000000  0.87500000  0.00000000  1.953125e-03 
  0.00000000  0.87500000  0.12500000  1.953125e-03 
  0.00000000  0.87500000  0.25000000  1.953125e-03 
  0.00000000  0.87500000  0.37500000  1.953125e-03 
  0.00000000  0.87500000  0.50000000  1.953125e-03 
  0.00000000  0.87500000  0.62500000  1.953125e-03 
  0.00000000  0.87500000  0.75000000  1.953125e-03 
  0.00000000  0.87500000  0.87500000  1.953125e-03 
  0.12500000  0.00000000  0.00000000  1.953125e-03 
  0.12500000  0.00000000  0.12500000  1.953125e-03 
  0.12500000  0.00000000  0.25000000  1.953125e-03 
  0.12500000  0.00000000  0.37500000  1.953125e-03 
  0.12500000  0.00000000  0.50000000  1.953125e-03 
  0.12500000  0.00000000  0.62500000  1.953125e-03 
  0.12500000  0.00000000  0.75000000  1.953125e-03 
  0.12500000  0.00000000  0.87500000  1.953125e-03 
  0.12500000  0.12500000  0.00000000  1.953125e-03 
  0.12500000  0.12500000  0.12500000  1.953125e-03 
  0.12500000  0.12500000  0.25000000  1.953125e-03 
  0.12500000  0.12500000  0.37500000  1.953125e-03 
  0.12500000  0.12500000  0.50000000  1.953125e-03 
  0.12500000  0.12500000  0.62500000  1.953125e-03 
  0.12500000  0.12500000  0.75000000  1.953125e-03 
  0.12500000  0.12500000  0.87500000  1.953125e-03 
  0.12500000  0.25000000  0.00000000  1.953125e-03 
  0.12500000  0.25000000  0.12500000  1.953125e-03 
  0.12500000  0.25000000  0.25000000  1.953125e-03 
  0.12500000  0.25000000  0.37500000  1.953125e-03 
  0.12500000  0.25000000  0.50000000  1.953125e-03 
  0.12500000  0.25000000  0.62500000  1.953125e-03 
  0.12500000  0.25000000  0.75000000  1.953125e-03 
  0.12500000  0.25000000  0.87500000  1.953125e-03 
  0.12500000  0.37500000  0.00000000  1.953125e-03 
  0.12500000  0.37500000  0.12500000  1.953125e-03 
  0.12500000  0.37500000  0.25000000  1.953125e-03 
  0.12500000  0.37500000  0.37500000  1.953125e-03 
  0.12500000  0.37500000  0.50000000  1.953125e-03 
  0.12500000  0.37500000  0.62500000  1.953125e-03 
  0.12500000  0.37500000  0.75000000  1.953125e-03 
  0.12500000  0.37500000  0.87500000  1.953125e-03 
  0.12500000  0.50000000  0.00000000  1.953125e-03 
  0.12500000  0.50000000  0.12500000  1.953125e-03 
  0.12500000  0.50000000  0.25000000  1.953125e-03 
  0.12500000  0.50000000  0.37500000  1.953125e-03 
  0.12500000  0.50000000  0.50000000  1.953125e-03 
  0.12500000  0.50000000  0.62500000  1.953125e-03 
  0.12500000  0.50000000  0.75000000  1.953125e-03 
  0.12500000  0.50000000  0.87500000  1.953125e-03 
  0.12500000  0.62500000  0.00000000  1.953125e-03 
  0.12500000  0.62500000  0.12500000  1.953125e-03 
  0.12500000  0.62500000  0.25000000  1.953125e-03 
  0.12500000  0.62500000  0.37500000  1.953125e-03 
  0.12500000  0.62500000  0.50000000  1.953125e-03 
  0.12500000  0.62500000  0.62500000  1.953125e-03 
  0.12500000  0.62500000  0.75000000  1.953125e-03 
  0.12500000  0.62500000  0.87500000  1.953125e-03 
  0.12500000  0.75000000  0.00000000  1.953125e-03 
  0.12500000  0.75000000  0.12500000  1.953125e-03 
  0.12500000  0.75000000  0.25000000  1.953125e-03 
  0.12500000  0.75000000  0.37500000  1.953125e-03 
  0.12500000  0.75000000  0.50000000  1.953125e-03 
  0.12500000  0.75000000  0.62500000  1.953125e-03 
  0.12500000  0.75000000  0.75000000  1.953125e-03 
  0.12500000  0.75000000  0.87500000  1.953125e-03 
  0.12500000  0.87500000  0.00000000  1.953125e-03 
  0.12500000  0.87500000  0.12500000  1.953125e-03 
  0.12500000  0.87500000  0.25000000  1.953125e-03 
  0.12500000  0.87500000  0.37500000  1.953125e-03 
  0.12500000  0.87500000  0.50000000  1.953125e-03 
  0.12500000  0.87500000  0.62500000  1.953125e-03 
  0.12500000  0.87500000  0.75000000  1.953125e-03 
  0.12500000  0.87500000  0.87500000  1.953125e-03 
  0.25000000  0.00000000  0.00000000  1.953125e-03 
  0.25000000  0.00000000  0.12500000  1.953125e-03 
  0.25000000  0.00000000  0.25000000  1.953125e-03 
  0.25000000  0.00000000  0.37500000  1.953125e-03 
  0.25000000  0.00000000  0.50000000  1.953125e-03 
  0.25000000  0.00000000  0.62500000  1.953125e-03 
  0.25000000  0.00000000  0.75000000  1.953125e-03 
  0.25000000  0.00000000  0.87500000  1.953125e-03 
  0.25000000  0.12500000  0.00000000  1.953125e-03 
  0.25000000  0.12500000  0.12500000  1.953125e-03 
  0.25000000  0.12500000  0.25000000  1.953125e-03 
  0.25000000  0.12500000  0.37500000  1.953125e-03 
  0.25000000  0.12500000  0.50000000  1.953125e-03 
  0.25000000  0.12500000  0.62500000  1.953125e-03 
  0.25000000  0.12500000  0.75000000  1.953125e-03 
  0.25000000  0.12500000  0.87500000  1.953125e-03 
  0.25000000  0.25000000  0.00000000  1.953125e-03 
  0.25000000  0.25000000  0.12500000  1.953125e-03 
  0.25000000  0.25000000  0.25000000  1.953125e-03 
  0.25000000  0.25000000  0.37500000  1.953125e-03 
  0.25000000  0.25000000  0.50000000  1.953125e-03 
  0.25000000  0.25000000  0.62500000  1.953125e-03 
  0.25000000  0.25000000  0.75000000  1.953125e-03 
  0.25000000  0.25000000  0.87500000  1.953125e-03 
  0.25000000  0.37500000  0.00000000  1.953125e-03 
  0.25000000  0.37500000  0.12500000  1.953125e-03 
  0.25000000  0.37500000  0.25000000  1.953125e-03 
  0.25000000  0.37500000  0.37500000  1.953125e-03 
  0.25000000  0.37500000  0.50000000  1.953125e-03 
  0.25000000  0.37500000  0.62500000  1.953125e-03 
  0.25000000  0.37500000  0.75000000  1.953125e-03 
  0.25000000  0.37500000  0.87500000  1.953125e-03 
  0.25000000  0.50000000  0.00000000  1.953125e-03 
  0.25000000  0.50000000  0.12500000  1.953125e-03 
  0.25000000  0.50000000  0.25000000  1.953125e-03 
  0.25000000  0.50000000  0.37500000  1.953125e-03 
  0.25000000  0.50000000  0.50000000  1.953125e-03 
  0.25000000  0.50000000  0.62500000  1.953125e-03 
  0.25000000  0.50000000  0.75000000  1.953125e-03 
  0.25000000  0.50000000  0.87500000  1.953125e-03 
  0.25000000  0.62500000  0.00000000  1.953125e-03 
  0.25000000  0.62500000  0.12500000  1.953125e-03 
  0.25000000  0.62500000  0.25000000  1.953125e-03 
  0.25000000  0.62500000  0.37500000  1.953125e-03 
  0.25000000  0.62500000  0.50000000  1.953125e-03 
  0.25000000  0.62500000  0.62500000  1.953125e-03 
  0.25000000  0.62500000  0.75000000  1.953125e-03 
  0.25000000  0.62500000  0.87500000  1.953125e-03 
  0.25000000  0.75000000  0.00000000  1.953125e-03 
  0.25000000  0.75000000  0.12500000  1.953125e-03 
  0.25000000  0.75000000  0.25000000  1.953125e-03 
  0.25000000  0.75000000  0.37500000  1.953125e-03 
  0.25000000  0.75000000  0.50000000  1.953125e-03 
  0.25000000  0.75000000  0.62500000  1.953125e-03 
  0.25000000  0.75000000  0.75000000  1.953125e-03 
  0.25000000  0.75000000  0.87500000  1.953125e-03 
  0.25000000  0.87500000  0.00000000  1.953125e-03 
  0.25000000  0.87500000  0.12500000  1.953125e-03 
  0.25000000  0.87500000  0.25000000  1.953125e-03 
  0.25000000  0.87500000  0.37500000  1.953125e-03 
  0.25000000  0.87500000  0.50000000  1.953125e-03 
  0.25000000  0.87500000  0.62500000  1.953125e-03 
  0.25000000  0.87500000  0.75000000  1.953125e-03 
  0.25000000  0.87500000  0.87500000  1.953125e-03 
  0.37500000  0.00000000  0.00000000  1.953125e-03 
  0.37500000  0.00000000  0.12500000  1.953125e-03 
  0.37500000  0.00000000  0.25000000  1.953125e-03 
  0.37500000  0.00000000  0.37500000  1.953125e-03 
  0.37500000  0.00000000  0.50000000  1.953125e-03 
  0.37500000  0.00000000  0.62500000  1.953125e-03 
  0.37500000  0.00000000  0.75000000  1.953125e-03 
  0.37500000  0.00000000  0.87500000  1.953125e-03 
  0.37500000  0.12500000  0.00000000  1.953125e-03 
  0.37500000  0.12500000  0.12500000  1.953125e-03 
  0.37500000  0.12500000  0.25000000  1.953125e-03 
  0.37500000  0.12500000  0.37500000  1.953125e-03 
  0.37500000  0.12500000  0.50000000  1.953125e-03 
  0.37500000  0.12500000  0.62500000  1.953125e-03 
  0.37500000  0.12500000  0.75000000  1.953125e-03 
  0.37500000  0.12500000  0.87500000  1.953125e-03 
  0.37500000  0.25000000  0.00000000  1.953125e-03 
  0.37500000  0.25000000  0.12500000  1.953125e-03 
  0.37500000  0.25000000  0.25000000  1.953125e-03 
  0.37500000  0.25000000  0.37500000  1.953125e-03 
  0.37500000  0.25000000  0.50000000  1.953125e-03 
  0.37500000  0.25000000  0.62500000  1.953125e-03 
  0.37500000  0.25000000  0.75000000  1.953125e-03 
  0.37500000  0.25000000  0.87500000  1.953125e-03 
  0.37500000  0.37500000  0.00000000  1.953125e-03 
  0.37500000  0.37500000  0.12500000  1.953125e-03 
  0.37500000  0.37500000  0.25000000  1.953125e-03 
  0.37500000  0.37500000  0.37500000  1.953125e-03 
  0.37500000  0.37500000  0.50000000  1.953125e-03 
  0.37500000  0.37500000  0.62500000  1.953125e-03 
  0.37500000  0.37500000  0.75000000  1.953125e-03 
  0.37500000  0.37500000  0.87500000  1.953125e-03 
  0.37500000  0.50000000  0.00000000  1.953125e-03 
  0.37500000  0.50000000  0.12500000  1.953125e-03 
  0.37500000  0.50000000  0.25000000  1.953125e-03 
  0.37500000  0.50000000  0.37500000  1.953125e-03 
  0.37500000  0.50000000  0.50000000  1.953125e-03 
  0.37500000  0.50000000  0.62500000  1.953125e-03 
  0.37500000  0.50000000  0.75000000  1.953125e-03 
  0.37500000  0.50000000  0.87500000  1.953125e-03 
  0.37500000  0.62500000  0.00000000  1.953125e-03 
  0.37500000  0.62500000  0.12500000  1.953125e-03 
  0.37500000  0.62500000  0.25000000  1.953125e-03 
  0.37500000  0.62500000  0.37500000  1.953125e-03 
  0.37500000  0.62500000  0.50000000  1.953125e-03 
  0.37500000  0.62500000  0.62500000  1.953125e-03 
  0.37500000  0.62500000  0.75000000  1.953125e-03 
  0.37500000  0.62500000  0.87500000  1.953125e-03 
  0.37500000  0.75000000  0.00000000  1.953125e-03 
  0.37500000  0.75000000  0.12500000  1.953125e-03 
  0.37500000  0.75000000  0.25000000  1.953125e-03 
  0.37500000  0.75000000  0.37500000  1.953125e-03 
  0.37500000  0.75000000  0.50000000  1.953125e-03 
  0.37500000  0.75000000  0.62500000  1.953125e-03 
  0.37500000  0.75000000  0.75000000  1.953125e-03 
  0.37500000  0.75000000  0.87500000  1.953125e-03 
  0.37500000  0.87500000  0.00000000  1.953125e-03 
  0.37500000  0.87500000  0.12500000  1.953125e-03 
  0.37500000  0.87500000  0.25000000  1.953125e-03 
  0.37500000  0.87500000  0.37500000  1.953125e-03 
  0.37500000  0.87500000  0.50000000  1.953125e-03 
  0.37500000  0.87500000  0.62500000  1.953125e-03 
  0.37500000  0.87500000  0.75000000  1.953125e-03 
  0.37500000  0.87500000  0.87500000  1.953125e-03 
  0.50000000  0.00000000  0.00000000  1.953125e-03 
  0.50000000  0.00000000  0.12500000  1.953125e-03 
  0.50000000  0.00000000  0.25000000  1.953125e-03 
  0.50000000  0.00000000  0.37500000  1.953125e-03 
  0.50000000  0.00000000  0.50000000  1.953125e-03 
  0.50000000  0.00000000  0.62500000  1.953125e-03 
  0.50000000  0.00000000  0.75000000  1.953125e-03 
  0.50000000  0.00000000  0.87500000  1.953125e-03 
  0.50000000  0.12500000  0.00000000  1.953125e-03 
  0.50000000  0.12500000  0.12500000  1.953125e-03 
  0.50000000  0.12500000  0.25000000  1.953125e-03 
  0.50000000  0.12500000  0.37500000  1.953125e-03 
  0.50000000  0.12500000  0.50000000  1.953125e-03 
  0.50000000  0.12500000  0.62500000  1.953125e-03 
  0.50000000  0.12500000  0.75000000  1.953125e-03 
  0.50000000  0.12500000  0.87500000  1.953125e-03 
  0.50000000  0.25000000  0.00000000  1.953125e-03 
  0.50000000  0.25000000  0.12500000  1.953125e-03 
  0.50000000  0.25000000  0.25000000  1.953125e-03 
  0.50000000  0.25000000  0.37500000  1.953125e-03 
  0.50000000  0.25000000  0.50000000  1.953125e-03 
  0.50000000  0.25000000  0.62500000  1.953125e-03 
  0.50000000  0.25000000  0.75000000  1.953125e-03 
  0.50000000  0.25000000  0.87500000  1.953125e-03 
  0.50000000  0.37500000  0.00000000  1.953125e-03 
  0.50000000  0.37500000  0.12500000  1.953125e-03 
  0.50000000  0.37500000  0.25000000  1.953125e-03 
  0.50000000  0.37500000  0.37500000  1.953125e-03 
  0.50000000  0.37500000  0.50000000  1.953125e-03 
  0.50000000  0.37500000  0.62500000  1.953125e-03 
  0.50000000  0.37500000  0.75000000  1.953125e-03 
  0.50000000  0.37500000  0.87500000  1.953125e-03 
  0.50000000  0.50000000  0.00000000  1.953125e-03 
  0.50000000  0.50000000  0.12500000  1.953125e-03 
  0.50000000  0.50000000  0.25000000  1.953125e-03 
  0.50000000  0.50000000  0.37500000  1.953125e-03 
  0.50000000  0.50000000  0.50000000  1.953125e-03 
  0.50000000  0.50000000  0.62500000  1.953125e-03 
  0.50000000  0.50000000  0.75000000  1.953125e-03 
  0.50000000  0.50000000  0.87500000  1.953125e-03 
  0.50000000  0.62500000  0.00000000  1.953125e-03 
  0.50000000  0.62500000  0.12500000  1.953125e-03 
  0.50000000  0.62500000  0.25000000  1.953125e-03 
  0.50000000  0.62500000  0.37500000  1.953125e-03 
  0.50000000  0.62500000  0.50000000  1.953125e-03 
  0.50000000  0.62500000  0.62500000  1.953125e-03 
  0.50000000  0.62500000  0.75000000  1.953125e-03 
  0.50000000  0.62500000  0.87500000  1.953125e-03 
  0.50000000  0.75000000  0.00000000  1.953125e-03 
  0.50000000  0.75000000  0.12500000  1.953125e-03 
  0.50000000  0.75000000  0.25000000  1.953125e-03 
  0.50000000  0.75000000  0.37500000  1.953125e-03 
  0.50000000  0.75000000  0.50000000  1.953125e-03 
  0.50000000  0.75000000  0.62500000  1.953125e-03 
  0.50000000  0.75000000  0.75000000  1.953125e-03 
  0.50000000  0.75000000  0.87500000  1.953125e-03 
  0.50000000  0.87500000  0.00000000  1.953125e-03 
  0.50000000  0.87500000  0.12500000  1.953125e-03 
  0.50000000  0.87500000  0.25000000  1.953125e-03 
  0.50000000  0.87500000  0.37500000  1.953125e-03 
  0.50000000  0.87500000  0.50000000  1.953125e-03 
  0.50000000  0.87500000  0.62500000  1.953125e-03 
  0.50000000  0.87500000  0.75000000  1.953125e-03 
  0.50000000  0.87500000  0.87500000  1.953125e-03 
  0.62500000  0.00000000  0.00000000  1.953125e-03 
  0.62500000  0.00000000  0.12500000  1.953125e-03 
  0.62500000  0.00000000  0.25000000  1.953125e-03 
  0.62500000  0.00000000  0.37500000  1.953125e-03 
  0.62500000  0.00000000  0.50000000  1.953125e-03 
  0.62500000  0.00000000  0.62500000  1.953125e-03 
  0.62500000  0.00000000  0.75000000  1.953125e-03 
  0.62500000  0.00000000  0.87500000  1.953125e-03 
  0.62500000  0.12500000  0.00000000  1.953125e-03 
  0.62500000  0.12500000  0.12500000  1.953125e-03 
  0.62500000  0.12500000  0.25000000  1.953125e-03 
  0.62500000  0.12500000  0.37500000  1.953125e-03 
  0.62500000  0.12500000  0.50000000  1.953125e-03 
  0.62500000  0.12500000  0.62500000  1.953125e-03 
  0.62500000  0.12500000  0.75000000  1.953125e-03 
  0.62500000  0.12500000  0.87500000  1.953125e-03 
  0.62500000  0.25000000  0.00000000  1.953125e-03 
  0.62500000  0.25000000  0.12500000  1.953125e-03 
  0.62500000  0.25000000  0.25000000  1.953125e-03 
  0.62500000  0.25000000  0.37500000  1.953125e-03 
  0.62500000  0.25000000  0.50000000  1.953125e-03 
  0.62500000  0.25000000  0.62500000  1.953125e-03 
  0.62500000  0.25000000  0.75000000  1.953125e-03 
  0.62500000  0.25000000  0.87500000  1.953125e-03 
  0.62500000  0.37500000  0.00000000  1.953125e-03 
  0.62500000  0.37500000  0.12500000  1.953125e-03 
  0.62500000  0.37500000  0.25000000  1.953125e-03 
  0.62500000  0.37500000  0.37500000  1.953125e-03 
  0.62500000  0.37500000  0.50000000  1.953125e-03 
  0.62500000  0.37500000  0.62500000  1.953125e-03 
  0.62500000  0.37500000  0.75000000  1.953125e-03 
  0.62500000  0.37500000  0.87500000  1.953125e-03 
  0.62500000  0.50000000  0.00000000  1.953125e-03 
  0.62500000  0.50000000  0.12500000  1.953125e-03 
  0.62500000  0.50000000  0.25000000  1.953125e-03 
  0.62500000  0.50000000  0.37500000  1.953125e-03 
  0.62500000  0.50000000  0.50000000  1.953125e-03 
  0.62500000  0.50000000  0.62500000  1.953125e-03 
  0.62500000  0.50000000  0.75000000  1.953125e-03 
  0.62500000  0.50000000  0.87500000  1.953125e-03 
  0.62500000  0.62500000  0.00000000  1.953125e-03 
  0.62500000  0.62500000  0.12500000  1.953125e-03 
  0.62500000  0.62500000  0.25000000  1.953125e-03 
  0.62500000  0.62500000  0.37500000  1.953125e-03 
  0.62500000  0.62500000  0.50000000  1.953125e-03 
  0.62500000  0.62500000  0.62500000  1.953125e-03 
  0.62500000  0.62500000  0.75000000  1.953125e-03 
  0.62500000  0.62500000  0.87500000  1.953125e-03 
  0.62500000  0.75000000  0.00000000  1.953125e-03 
  0.62500000  0.75000000  0.12500000  1.953125e-03 
  0.62500000  0.75000000  0.25000000  1.953125e-03 
  0.62500000  0.75000000  0.37500000  1.953125e-03 
  0.62500000  0.75000000  0.50000000  1.953125e-03 
  0.62500000  0.75000000  0.62500000  1.953125e-03 
  0.62500000  0.75000000  0.75000000  1.953125e-03 
  0.62500000  0.75000000  0.87500000  1.953125e-03 
  0.62500000  0.87500000  0.00000000  1.953125e-03 
  0.62500000  0.87500000  0.12500000  1.953125e-03 
  0.62500000  0.87500000  0.25000000  1.953125e-03 
  0.62500000  0.87500000  0.37500000  1.953125e-03 
  0.62500000  0.87500000  0.50000000  1.953125e-03 
  0.62500000  0.87500000  0.62500000  1.953125e-03 
  0.62500000  0.87500000  0.75000000  1.953125e-03 
  0.62500000  0.87500000  0.87500000  1.953125e-03 
  0.75000000  0.00000000  0.00000000  1.953125e-03 
  0.75000000  0.00000000  0.12500000  1.953125e-03 
  0.75000000  0.00000000  0.25000000  1.953125e-03 
  0.75000000  0.00000000  0.37500000  1.953125e-03 
  0.75000000  0.00000000  0.50000000  1.953125e-03 
  0.75000000  0.00000000  0.62500000  1.953125e-03 
  0.75000000  0.00000000  0.75000000  1.953125e-03 
  0.75000000  0.00000000  0.87500000  1.953125e-03 
  0.75000000  0.12500000  0.00000000  1.953125e-03 
  0.75000000  0.12500000  0.12500000  1.953125e-03 
  0.75000000  0.12500000  0.25000000  1.953125e-03 
  0.75000000  0.12500000  0.37500000  1.953125e-03 
  0.75000000  0.12500000  0.50000000  1.953125e-03 
  0.75000000  0.12500000  0.62500000  1.953125e-03 
  0.75000000  0.12500000  0.75000000  1.953125e-03 
  0.75000000  0.12500000  0.87500000  1.953125e-03 
  0.75000000  0.25000000  0.00000000  1.953125e-03 
  0.75000000  0.25000000  0.12500000  1.953125e-03 
  0.75000000  0.25000000  0.25000000  1.953125e-03 
  0.75000000  0.25000000  0.37500000  1.953125e-03 
  0.75000000  0.25000000  0.50000000  1.953125e-03 
  0.75000000  0.25000000  0.62500000  1.953125e-03 
  0.75000000  0.25000000  0.75000000  1.953125e-03 
  0.75000000  0.25000000  0.87500000  1.953125e-03 
  0.75000000  0.37500000  0.00000000  1.953125e-03 
  0.75000000  0.37500000  0.12500000  1.953125e-03 
  0.75000000  0.37500000  0.25000000  1.953125e-03 
  0.75000000  0.37500000  0.37500000  1.953125e-03 
  0.75000000  0.37500000  0.50000000  1.953125e-03 
  0.75000000  0.37500000  0.62500000  1.953125e-03 
  0.75000000  0.37500000  0.75000000  1.953125e-03 
  0.75000000  0.37500000  0.87500000  1.953125e-03 
  0.75000000  0.50000000  0.00000000  1.953125e-03 
  0.75000000  0.50000000  0.12500000  1.953125e-03 
  0.75000000  0.50000000  0.25000000  1.953125e-03 
  0.75000000  0.50000000  0.37500000  1.953125e-03 
  0.75000000  0.50000000  0.50000000  1.953125e-03 
  0.75000000  0.50000000  0.62500000  1.953125e-03 
  0.75000000  0.50000000  0.75000000  1.953125e-03 
  0.75000000  0.50000000  0.87500000  1.953125e-03 
  0.75000000  0.62500000  0.00000000  1.953125e-03 
  0.75000000  0.62500000  0.12500000  1.953125e-03 
  0.75000000  0.62500000  0.25000000  1.953125e-03 
  0.75000000  0.62500000  0.37500000  1.953125e-03 
  0.75000000  0.62500000  0.50000000  1.953125e-03 
  0.75000000  0.62500000  0.62500000  1.953125e-03 
  0.75000000  0.62500000  0.75000000  1.953125e-03 
  0.75000000  0.62500000  0.87500000  1.953125e-03 
  0.75000000  0.75000000  0.00000000  1.953125e-03 
  0.75000000  0.75000000  0.12500000  1.953125e-03 
  0.75000000  0.75000000  0.25000000  1.953125e-03 
  0.75000000  0.75000000  0.37500000  1.953125e-03 
  0.75000000  0.75000000  0.50000000  1.953125e-03 
  0.75000000  0.75000000  0.62500000  1.953125e-03 
  0.75000000  0.75000000  0.75000000  1.953125e-03 
  0.75000000  0.75000000  0.87500000  1.953125e-03 
  0.75000000  0.87500000  0.00000000  1.953125e-03 
  0.75000000  0.87500000  0.12500000  1.953125e-03 
  0.75000000  0.87500000  0.25000000  1.953125e-03 
  0.75000000  0.87500000  0.37500000  1.953125e-03 
  0.75000000  0.87500000  0.50000000  1.953125e-03 
  0.75000000  0.87500000  0.62500000  1.953125e-03 
  0.75000000  0.87500000  0.75000000  1.953125e-03 
  0.75000000  0.87500000  0.87500000  1.953125e-03 
  0.87500000  0.00000000  0.00000000  1.953125e-03 
  0.87500000  0.00000000  0.12500000  1.953125e-03 
  0.87500000  0.00000000  0.25000000  1.953125e-03 
  0.87500000  0.00000000  0.37500000  1.953125e-03 
  0.87500000  0.00000000  0.50000000  1.953125e-03 
  0.87500000  0.00000000  0.62500000  1.953125e-03 
  0.87500000  0.00000000  0.75000000  1.953125e-03 
  0.87500000  0.00000000  0.87500000  1.953125e-03 
  0.87500000  0.12500000  0.00000000  1.953125e-03 
  0.87500000  0.12500000  0.12500000  1.953125e-03 
  0.87500000  0.12500000  0.25000000  1.953125e-03 
  0.87500000  0.12500000  0.37500000  1.953125e-03 
  0.87500000  0.12500000  0.50000000  1.953125e-03 
  0.87500000  0.12500000  0.62500000  1.953125e-03 
  0.87500000  0.12500000  0.75000000  1.953125e-03 
  0.87500000  0.12500000  0.87500000  1.953125e-03 
  0.87500000  0.25000000  0.00000000  1.953125e-03 
  0.87500000  0.25000000  0.12500000  1.953125e-03 
  0.87500000  0.25000000  0.25000000  1.953125e-03 
  0.87500000  0.25000000  0.37500000  1.953125e-03 
  0.87500000  0.25000000  0.50000000  1.953125e-03 
  0.87500000  0.25000000  0.62500000  1.953125e-03 
  0.87500000  0.25000000  0.75000000  1.953125e-03 
  0.87500000  0.25000000  0.87500000  1.953125e-03 
  0.87500000  0.37500000  0.00000000  1.953125e-03 
  0.87500000  0.37500000  0.12500000  1.953125e-03 
  0.87500000  0.37500000  0.25000000  1.953125e-03 
  0.87500000  0.37500000  0.37500000  1.953125e-03 
  0.87500000  0.37500000  0.50000000  1.953125e-03 
  0.87500000  0.37500000  0.62500000  1.953125e-03 
  0.87500000  0.37500000  0.75000000  1.953125e-03 
  0.87500000  0.37500000  0.87500000  1.953125e-03 
  0.87500000  0.50000000  0.00000000  1.953125e-03 
  0.87500000  0.50000000  0.12500000  1.953125e-03 
  0.87500000  0.50000000  0.25000000  1.953125e-03 
  0.87500000  0.50000000  0.37500000  1.953125e-03 
  0.87500000  0.50000000  0.50000000  1.953125e-03 
  0.87500000  0.50000000  0.62500000  1.953125e-03 
  0.87500000  0.50000000  0.75000000  1.953125e-03 
  0.87500000  0.50000000  0.87500000  1.953125e-03 
  0.87500000  0.62500000  0.00000000  1.953125e-03 
  0.87500000  0.62500000  0.12500000  1.953125e-03 
  0.87500000  0.62500000  0.25000000  1.953125e-03 
  0.87500000  0.62500000  0.37500000  1.953125e-03 
  0.87500000  0.62500000  0.50000000  1.953125e-03 
  0.87500000  0.62500000  0.62500000  1.953125e-03 
  0.87500000  0.62500000  0.75000000  1.953125e-03 
  0.87500000  0.62500000  0.87500000  1.953125e-03 
  0.87500000  0.75000000  0.00000000  1.953125e-03 
  0.87500000  0.75000000  0.12500000  1.953125e-03 
  0.87500000  0.75000000  0.25000000  1.953125e-03 
  0.87500000  0.75000000  0.37500000  1.953125e-03 
  0.87500000  0.75000000  0.50000000  1.953125e-03 
  0.87500000  0.75000000  0.62500000  1.953125e-03 
  0.87500000  0.75000000  0.75000000  1.953125e-03 
  0.87500000  0.75000000  0.87500000  1.953125e-03 
  0.87500000  0.87500000  0.00000000  1.953125e-03 
  0.87500000  0.87500000  0.12500000  1.953125e-03 
  0.87500000  0.87500000  0.25000000  1.953125e-03 
  0.87500000  0.87500000  0.37500000  1.953125e-03 
  0.87500000  0.87500000  0.50000000  1.953125e-03 
  0.87500000  0.87500000  0.62500000  1.953125e-03 
  0.87500000  0.87500000  0.75000000  1.953125e-03 
  0.87500000  0.87500000  0.87500000  1.953125e-03 
