&inputpp
    outdir='./work'
    prefix='Cu',
    seedname = 'Cu'
	write_unk = .true.
        write_dmb = .true.
    !    read_sym = .true.
/
