 &control
    calculation='nscf'
    restart_mode='from_scratch',
    pseudo_dir = './',
    outdir='./'
    prefix='Te'
    verbosity='high'
    wf_collect=.true.
 /
 &system
    ibrav = 4,  celldm(1)=8.422509341, celldm(3)=1.3368, nat= 3, ntyp= 1,
    ecutwfc = 10
    lspinorb=.false.,
    noncolin=.false.
    occupations='smearing', smearing='cold', degauss=0.02
    nbnd=12
    nosym=.true.
 /
 &electrons
    diago_full_acc=.true.
    startingwfc='random'
    diagonalization='cg'
    conv_thr=1.0e-10
 /

ATOMIC_SPECIES
Te 1.0  Te.pbe-n-nc.UPF

ATOMIC_POSITIONS crystal
Te   0.274036   0.274036  0.00000000000000000000000000  
Te  -0.274036   0.000000  0.33333333333333333333333357  
Te  -0.000000  -0.274036  0.66666666666666666666666643  

K_POINTS {crystal}
8
  0.00000000  0.00000000  0.00000000  1.250000e-01 
  0.00000000  0.00000000  0.50000000  1.250000e-01 
  0.00000000  0.50000000  0.00000000  1.250000e-01 
  0.00000000  0.50000000  0.50000000  1.250000e-01 
  0.50000000  0.00000000  0.00000000  1.250000e-01 
  0.50000000  0.00000000  0.50000000  1.250000e-01 
  0.50000000  0.50000000  0.00000000  1.250000e-01 
  0.50000000  0.50000000  0.50000000  1.250000e-01 
