    num_print_cycles =   13      
    num_wann        =   4 
    use_ws_distance = .false.
search_shells=12    
    dis_win_min       = -8.0d0       
    dis_win_max       = 14.3d0
    dis_froz_min      = -8.0d0
    dis_froz_max      =  6.7d0
    num_iter          = 100
   dis_num_iter      =  50    !now a comment 
    dis_mix_ratio     =  0.5d0
! test
mp_grid : 2 2 2 !fdfd

!begin atoms_frac
!G 0.0 0.0 0.0
!As 0.25 0.25 0.25
!end atoms_frac

begin atoms_cart
 Bohr
G 0.0 0.0 0.0
As 1.4200465   1.4200465   1.4200465 
end atoms_cart



begin unit_cell_cart
 Bohr
0.0000000  5.3670000  5.3670000 
 5.3670000  0.0000000  5.3670000  
 5.3670000  5.3670000  0.0000000
end unit_cell_cart

begin kpoints
 0.00000 0.00000 0.00000        
 0.00000 0.00000 0.50000
 0.00000 0.50000 0.00000
 0.00000 0.50000 0.50000
 0.50000 0.00000 0.00000
 0.50000 0.00000 0.50000
 0.50000 0.50000 0.00000
 0.50000 0.50000 0.50000
end kpoints
