num_bands         =   28        
num_wann          =   18 

dis_win_min       = -8.0d0       
dis_win_max       = 70.0d0
dis_froz_min      = -8.0d0
dis_froz_max      =  30.0d0
dis_num_iter      =  500 

num_iter          = 200 
dis_mix_ratio = 1.0

spinors = T
begin projections
Fe: sp3d2;dxy;dxz;dyz
end projections

fermi_energy = 12.6285

berry = T
berry_interp_mesh = 25
berry_task = optics
optics_max_energy = 7.0
optics_time_parity = even 

begin unit_cell_cart
bohr
 2.71175  2.71175 2.71175
-2.71175  2.71175 2.71175
-2.71175 -2.71175 2.71175
end unit_cell_cart

begin atoms_frac
Fe  0.000  0.000  0.000
end atoms_frac

mp_grid           = 8 8 8

begin kpoints
  0.00000000  0.00000000  0.00000000  1.953125e-03 
  0.00000000  0.00000000  0.12500000  1.953125e-03 
  0.00000000  0.00000000  0.25000000  1.953125e-03 
  0.00000000  0.00000000  0.37500000  1.953125e-03 
  0.00000000  0.00000000  0.50000000  1.953125e-03 
  0.00000000  0.00000000  0.62500000  1.953125e-03 
  0.00000000  0.00000000  0.75000000  1.953125e-03 
  0.00000000  0.00000000  0.87500000  1.953125e-03 
  0.00000000  0.12500000  0.00000000  1.953125e-03 
  0.00000000  0.12500000  0.12500000  1.953125e-03 
  0.00000000  0.12500000  0.25000000  1.953125e-03 
  0.00000000  0.12500000  0.37500000  1.953125e-03 
  0.00000000  0.12500000  0.50000000  1.953125e-03 
  0.00000000  0.12500000  0.62500000  1.953125e-03 
  0.00000000  0.12500000  0.75000000  1.953125e-03 
  0.00000000  0.12500000  0.87500000  1.953125e-03 
  0.00000000  0.25000000  0.00000000  1.953125e-03 
  0.00000000  0.25000000  0.12500000  1.953125e-03 
  0.00000000  0.25000000  0.25000000  1.953125e-03 
  0.00000000  0.25000000  0.37500000  1.953125e-03 
  0.00000000  0.25000000  0.50000000  1.953125e-03 
  0.00000000  0.25000000  0.62500000  1.953125e-03 
  0.00000000  0.25000000  0.75000000  1.953125e-03 
  0.00000000  0.25000000  0.87500000  1.953125e-03 
  0.00000000  0.37500000  0.00000000  1.953125e-03 
  0.00000000  0.37500000  0.12500000  1.953125e-03 
  0.00000000  0.37500000  0.25000000  1.953125e-03 
  0.00000000  0.37500000  0.37500000  1.953125e-03 
  0.00000000  0.37500000  0.50000000  1.953125e-03 
  0.00000000  0.37500000  0.62500000  1.953125e-03 
  0.00000000  0.37500000  0.75000000  1.953125e-03 
  0.00000000  0.37500000  0.87500000  1.953125e-03 
  0.00000000  0.50000000  0.00000000  1.953125e-03 
  0.00000000  0.50000000  0.12500000  1.953125e-03 
  0.00000000  0.50000000  0.25000000  1.953125e-03 
  0.00000000  0.50000000  0.37500000  1.953125e-03 
  0.00000000  0.50000000  0.50000000  1.953125e-03 
  0.00000000  0.50000000  0.62500000  1.953125e-03 
  0.00000000  0.50000000  0.75000000  1.953125e-03 
  0.00000000  0.50000000  0.87500000  1.953125e-03 
  0.00000000  0.62500000  0.00000000  1.953125e-03 
  0.00000000  0.62500000  0.12500000  1.953125e-03 
  0.00000000  0.62500000  0.25000000  1.953125e-03 
  0.00000000  0.62500000  0.37500000  1.953125e-03 
  0.00000000  0.62500000  0.50000000  1.953125e-03 
  0.00000000  0.62500000  0.62500000  1.953125e-03 
  0.00000000  0.62500000  0.75000000  1.953125e-03 
  0.00000000  0.62500000  0.87500000  1.953125e-03 
  0.00000000  0.75000000  0.00000000  1.953125e-03 
  0.00000000  0.75000000  0.12500000  1.953125e-03 
  0.00000000  0.75000000  0.25000000  1.953125e-03 
  0.00000000  0.75000000  0.37500000  1.953125e-03 
  0.00000000  0.75000000  0.50000000  1.953125e-03 
  0.00000000  0.75000000  0.62500000  1.953125e-03 
  0.00000000  0.75000000  0.75000000  1.953125e-03 
  0.00000000  0.75000000  0.87500000  1.953125e-03 
  0.00000000  0.87500000  0.00000000  1.953125e-03 
  0.00000000  0.87500000  0.12500000  1.953125e-03 
  0.00000000  0.87500000  0.25000000  1.953125e-03 
  0.00000000  0.87500000  0.37500000  1.953125e-03 
  0.00000000  0.87500000  0.50000000  1.953125e-03 
  0.00000000  0.87500000  0.62500000  1.953125e-03 
  0.00000000  0.87500000  0.75000000  1.953125e-03 
  0.00000000  0.87500000  0.87500000  1.953125e-03 
  0.12500000  0.00000000  0.00000000  1.953125e-03 
  0.12500000  0.00000000  0.12500000  1.953125e-03 
  0.12500000  0.00000000  0.25000000  1.953125e-03 
  0.12500000  0.00000000  0.37500000  1.953125e-03 
  0.12500000  0.00000000  0.50000000  1.953125e-03 
  0.12500000  0.00000000  0.62500000  1.953125e-03 
  0.12500000  0.00000000  0.75000000  1.953125e-03 
  0.12500000  0.00000000  0.87500000  1.953125e-03 
  0.12500000  0.12500000  0.00000000  1.953125e-03 
  0.12500000  0.12500000  0.12500000  1.953125e-03 
  0.12500000  0.12500000  0.25000000  1.953125e-03 
  0.12500000  0.12500000  0.37500000  1.953125e-03 
  0.12500000  0.12500000  0.50000000  1.953125e-03 
  0.12500000  0.12500000  0.62500000  1.953125e-03 
  0.12500000  0.12500000  0.75000000  1.953125e-03 
  0.12500000  0.12500000  0.87500000  1.953125e-03 
  0.12500000  0.25000000  0.00000000  1.953125e-03 
  0.12500000  0.25000000  0.12500000  1.953125e-03 
  0.12500000  0.25000000  0.25000000  1.953125e-03 
  0.12500000  0.25000000  0.37500000  1.953125e-03 
  0.12500000  0.25000000  0.50000000  1.953125e-03 
  0.12500000  0.25000000  0.62500000  1.953125e-03 
  0.12500000  0.25000000  0.75000000  1.953125e-03 
  0.12500000  0.25000000  0.87500000  1.953125e-03 
  0.12500000  0.37500000  0.00000000  1.953125e-03 
  0.12500000  0.37500000  0.12500000  1.953125e-03 
  0.12500000  0.37500000  0.25000000  1.953125e-03 
  0.12500000  0.37500000  0.37500000  1.953125e-03 
  0.12500000  0.37500000  0.50000000  1.953125e-03 
  0.12500000  0.37500000  0.62500000  1.953125e-03 
  0.12500000  0.37500000  0.75000000  1.953125e-03 
  0.12500000  0.37500000  0.87500000  1.953125e-03 
  0.12500000  0.50000000  0.00000000  1.953125e-03 
  0.12500000  0.50000000  0.12500000  1.953125e-03 
  0.12500000  0.50000000  0.25000000  1.953125e-03 
  0.12500000  0.50000000  0.37500000  1.953125e-03 
  0.12500000  0.50000000  0.50000000  1.953125e-03 
  0.12500000  0.50000000  0.62500000  1.953125e-03 
  0.12500000  0.50000000  0.75000000  1.953125e-03 
  0.12500000  0.50000000  0.87500000  1.953125e-03 
  0.12500000  0.62500000  0.00000000  1.953125e-03 
  0.12500000  0.62500000  0.12500000  1.953125e-03 
  0.12500000  0.62500000  0.25000000  1.953125e-03 
  0.12500000  0.62500000  0.37500000  1.953125e-03 
  0.12500000  0.62500000  0.50000000  1.953125e-03 
  0.12500000  0.62500000  0.62500000  1.953125e-03 
  0.12500000  0.62500000  0.75000000  1.953125e-03 
  0.12500000  0.62500000  0.87500000  1.953125e-03 
  0.12500000  0.75000000  0.00000000  1.953125e-03 
  0.12500000  0.75000000  0.12500000  1.953125e-03 
  0.12500000  0.75000000  0.25000000  1.953125e-03 
  0.12500000  0.75000000  0.37500000  1.953125e-03 
  0.12500000  0.75000000  0.50000000  1.953125e-03 
  0.12500000  0.75000000  0.62500000  1.953125e-03 
  0.12500000  0.75000000  0.75000000  1.953125e-03 
  0.12500000  0.75000000  0.87500000  1.953125e-03 
  0.12500000  0.87500000  0.00000000  1.953125e-03 
  0.12500000  0.87500000  0.12500000  1.953125e-03 
  0.12500000  0.87500000  0.25000000  1.953125e-03 
  0.12500000  0.87500000  0.37500000  1.953125e-03 
  0.12500000  0.87500000  0.50000000  1.953125e-03 
  0.12500000  0.87500000  0.62500000  1.953125e-03 
  0.12500000  0.87500000  0.75000000  1.953125e-03 
  0.12500000  0.87500000  0.87500000  1.953125e-03 
  0.25000000  0.00000000  0.00000000  1.953125e-03 
  0.25000000  0.00000000  0.12500000  1.953125e-03 
  0.25000000  0.00000000  0.25000000  1.953125e-03 
  0.25000000  0.00000000  0.37500000  1.953125e-03 
  0.25000000  0.00000000  0.50000000  1.953125e-03 
  0.25000000  0.00000000  0.62500000  1.953125e-03 
  0.25000000  0.00000000  0.75000000  1.953125e-03 
  0.25000000  0.00000000  0.87500000  1.953125e-03 
  0.25000000  0.12500000  0.00000000  1.953125e-03 
  0.25000000  0.12500000  0.12500000  1.953125e-03 
  0.25000000  0.12500000  0.25000000  1.953125e-03 
  0.25000000  0.12500000  0.37500000  1.953125e-03 
  0.25000000  0.12500000  0.50000000  1.953125e-03 
  0.25000000  0.12500000  0.62500000  1.953125e-03 
  0.25000000  0.12500000  0.75000000  1.953125e-03 
  0.25000000  0.12500000  0.87500000  1.953125e-03 
  0.25000000  0.25000000  0.00000000  1.953125e-03 
  0.25000000  0.25000000  0.12500000  1.953125e-03 
  0.25000000  0.25000000  0.25000000  1.953125e-03 
  0.25000000  0.25000000  0.37500000  1.953125e-03 
  0.25000000  0.25000000  0.50000000  1.953125e-03 
  0.25000000  0.25000000  0.62500000  1.953125e-03 
  0.25000000  0.25000000  0.75000000  1.953125e-03 
  0.25000000  0.25000000  0.87500000  1.953125e-03 
  0.25000000  0.37500000  0.00000000  1.953125e-03 
  0.25000000  0.37500000  0.12500000  1.953125e-03 
  0.25000000  0.37500000  0.25000000  1.953125e-03 
  0.25000000  0.37500000  0.37500000  1.953125e-03 
  0.25000000  0.37500000  0.50000000  1.953125e-03 
  0.25000000  0.37500000  0.62500000  1.953125e-03 
  0.25000000  0.37500000  0.75000000  1.953125e-03 
  0.25000000  0.37500000  0.87500000  1.953125e-03 
  0.25000000  0.50000000  0.00000000  1.953125e-03 
  0.25000000  0.50000000  0.12500000  1.953125e-03 
  0.25000000  0.50000000  0.25000000  1.953125e-03 
  0.25000000  0.50000000  0.37500000  1.953125e-03 
  0.25000000  0.50000000  0.50000000  1.953125e-03 
  0.25000000  0.50000000  0.62500000  1.953125e-03 
  0.25000000  0.50000000  0.75000000  1.953125e-03 
  0.25000000  0.50000000  0.87500000  1.953125e-03 
  0.25000000  0.62500000  0.00000000  1.953125e-03 
  0.25000000  0.62500000  0.12500000  1.953125e-03 
  0.25000000  0.62500000  0.25000000  1.953125e-03 
  0.25000000  0.62500000  0.37500000  1.953125e-03 
  0.25000000  0.62500000  0.50000000  1.953125e-03 
  0.25000000  0.62500000  0.62500000  1.953125e-03 
  0.25000000  0.62500000  0.75000000  1.953125e-03 
  0.25000000  0.62500000  0.87500000  1.953125e-03 
  0.25000000  0.75000000  0.00000000  1.953125e-03 
  0.25000000  0.75000000  0.12500000  1.953125e-03 
  0.25000000  0.75000000  0.25000000  1.953125e-03 
  0.25000000  0.75000000  0.37500000  1.953125e-03 
  0.25000000  0.75000000  0.50000000  1.953125e-03 
  0.25000000  0.75000000  0.62500000  1.953125e-03 
  0.25000000  0.75000000  0.75000000  1.953125e-03 
  0.25000000  0.75000000  0.87500000  1.953125e-03 
  0.25000000  0.87500000  0.00000000  1.953125e-03 
  0.25000000  0.87500000  0.12500000  1.953125e-03 
  0.25000000  0.87500000  0.25000000  1.953125e-03 
  0.25000000  0.87500000  0.37500000  1.953125e-03 
  0.25000000  0.87500000  0.50000000  1.953125e-03 
  0.25000000  0.87500000  0.62500000  1.953125e-03 
  0.25000000  0.87500000  0.75000000  1.953125e-03 
  0.25000000  0.87500000  0.87500000  1.953125e-03 
  0.37500000  0.00000000  0.00000000  1.953125e-03 
  0.37500000  0.00000000  0.12500000  1.953125e-03 
  0.37500000  0.00000000  0.25000000  1.953125e-03 
  0.37500000  0.00000000  0.37500000  1.953125e-03 
  0.37500000  0.00000000  0.50000000  1.953125e-03 
  0.37500000  0.00000000  0.62500000  1.953125e-03 
  0.37500000  0.00000000  0.75000000  1.953125e-03 
  0.37500000  0.00000000  0.87500000  1.953125e-03 
  0.37500000  0.12500000  0.00000000  1.953125e-03 
  0.37500000  0.12500000  0.12500000  1.953125e-03 
  0.37500000  0.12500000  0.25000000  1.953125e-03 
  0.37500000  0.12500000  0.37500000  1.953125e-03 
  0.37500000  0.12500000  0.50000000  1.953125e-03 
  0.37500000  0.12500000  0.62500000  1.953125e-03 
  0.37500000  0.12500000  0.75000000  1.953125e-03 
  0.37500000  0.12500000  0.87500000  1.953125e-03 
  0.37500000  0.25000000  0.00000000  1.953125e-03 
  0.37500000  0.25000000  0.12500000  1.953125e-03 
  0.37500000  0.25000000  0.25000000  1.953125e-03 
  0.37500000  0.25000000  0.37500000  1.953125e-03 
  0.37500000  0.25000000  0.50000000  1.953125e-03 
  0.37500000  0.25000000  0.62500000  1.953125e-03 
  0.37500000  0.25000000  0.75000000  1.953125e-03 
  0.37500000  0.25000000  0.87500000  1.953125e-03 
  0.37500000  0.37500000  0.00000000  1.953125e-03 
  0.37500000  0.37500000  0.12500000  1.953125e-03 
  0.37500000  0.37500000  0.25000000  1.953125e-03 
  0.37500000  0.37500000  0.37500000  1.953125e-03 
  0.37500000  0.37500000  0.50000000  1.953125e-03 
  0.37500000  0.37500000  0.62500000  1.953125e-03 
  0.37500000  0.37500000  0.75000000  1.953125e-03 
  0.37500000  0.37500000  0.87500000  1.953125e-03 
  0.37500000  0.50000000  0.00000000  1.953125e-03 
  0.37500000  0.50000000  0.12500000  1.953125e-03 
  0.37500000  0.50000000  0.25000000  1.953125e-03 
  0.37500000  0.50000000  0.37500000  1.953125e-03 
  0.37500000  0.50000000  0.50000000  1.953125e-03 
  0.37500000  0.50000000  0.62500000  1.953125e-03 
  0.37500000  0.50000000  0.75000000  1.953125e-03 
  0.37500000  0.50000000  0.87500000  1.953125e-03 
  0.37500000  0.62500000  0.00000000  1.953125e-03 
  0.37500000  0.62500000  0.12500000  1.953125e-03 
  0.37500000  0.62500000  0.25000000  1.953125e-03 
  0.37500000  0.62500000  0.37500000  1.953125e-03 
  0.37500000  0.62500000  0.50000000  1.953125e-03 
  0.37500000  0.62500000  0.62500000  1.953125e-03 
  0.37500000  0.62500000  0.75000000  1.953125e-03 
  0.37500000  0.62500000  0.87500000  1.953125e-03 
  0.37500000  0.75000000  0.00000000  1.953125e-03 
  0.37500000  0.75000000  0.12500000  1.953125e-03 
  0.37500000  0.75000000  0.25000000  1.953125e-03 
  0.37500000  0.75000000  0.37500000  1.953125e-03 
  0.37500000  0.75000000  0.50000000  1.953125e-03 
  0.37500000  0.75000000  0.62500000  1.953125e-03 
  0.37500000  0.75000000  0.75000000  1.953125e-03 
  0.37500000  0.75000000  0.87500000  1.953125e-03 
  0.37500000  0.87500000  0.00000000  1.953125e-03 
  0.37500000  0.87500000  0.12500000  1.953125e-03 
  0.37500000  0.87500000  0.25000000  1.953125e-03 
  0.37500000  0.87500000  0.37500000  1.953125e-03 
  0.37500000  0.87500000  0.50000000  1.953125e-03 
  0.37500000  0.87500000  0.62500000  1.953125e-03 
  0.37500000  0.87500000  0.75000000  1.953125e-03 
  0.37500000  0.87500000  0.87500000  1.953125e-03 
  0.50000000  0.00000000  0.00000000  1.953125e-03 
  0.50000000  0.00000000  0.12500000  1.953125e-03 
  0.50000000  0.00000000  0.25000000  1.953125e-03 
  0.50000000  0.00000000  0.37500000  1.953125e-03 
  0.50000000  0.00000000  0.50000000  1.953125e-03 
  0.50000000  0.00000000  0.62500000  1.953125e-03 
  0.50000000  0.00000000  0.75000000  1.953125e-03 
  0.50000000  0.00000000  0.87500000  1.953125e-03 
  0.50000000  0.12500000  0.00000000  1.953125e-03 
  0.50000000  0.12500000  0.12500000  1.953125e-03 
  0.50000000  0.12500000  0.25000000  1.953125e-03 
  0.50000000  0.12500000  0.37500000  1.953125e-03 
  0.50000000  0.12500000  0.50000000  1.953125e-03 
  0.50000000  0.12500000  0.62500000  1.953125e-03 
  0.50000000  0.12500000  0.75000000  1.953125e-03 
  0.50000000  0.12500000  0.87500000  1.953125e-03 
  0.50000000  0.25000000  0.00000000  1.953125e-03 
  0.50000000  0.25000000  0.12500000  1.953125e-03 
  0.50000000  0.25000000  0.25000000  1.953125e-03 
  0.50000000  0.25000000  0.37500000  1.953125e-03 
  0.50000000  0.25000000  0.50000000  1.953125e-03 
  0.50000000  0.25000000  0.62500000  1.953125e-03 
  0.50000000  0.25000000  0.75000000  1.953125e-03 
  0.50000000  0.25000000  0.87500000  1.953125e-03 
  0.50000000  0.37500000  0.00000000  1.953125e-03 
  0.50000000  0.37500000  0.12500000  1.953125e-03 
  0.50000000  0.37500000  0.25000000  1.953125e-03 
  0.50000000  0.37500000  0.37500000  1.953125e-03 
  0.50000000  0.37500000  0.50000000  1.953125e-03 
  0.50000000  0.37500000  0.62500000  1.953125e-03 
  0.50000000  0.37500000  0.75000000  1.953125e-03 
  0.50000000  0.37500000  0.87500000  1.953125e-03 
  0.50000000  0.50000000  0.00000000  1.953125e-03 
  0.50000000  0.50000000  0.12500000  1.953125e-03 
  0.50000000  0.50000000  0.25000000  1.953125e-03 
  0.50000000  0.50000000  0.37500000  1.953125e-03 
  0.50000000  0.50000000  0.50000000  1.953125e-03 
  0.50000000  0.50000000  0.62500000  1.953125e-03 
  0.50000000  0.50000000  0.75000000  1.953125e-03 
  0.50000000  0.50000000  0.87500000  1.953125e-03 
  0.50000000  0.62500000  0.00000000  1.953125e-03 
  0.50000000  0.62500000  0.12500000  1.953125e-03 
  0.50000000  0.62500000  0.25000000  1.953125e-03 
  0.50000000  0.62500000  0.37500000  1.953125e-03 
  0.50000000  0.62500000  0.50000000  1.953125e-03 
  0.50000000  0.62500000  0.62500000  1.953125e-03 
  0.50000000  0.62500000  0.75000000  1.953125e-03 
  0.50000000  0.62500000  0.87500000  1.953125e-03 
  0.50000000  0.75000000  0.00000000  1.953125e-03 
  0.50000000  0.75000000  0.12500000  1.953125e-03 
  0.50000000  0.75000000  0.25000000  1.953125e-03 
  0.50000000  0.75000000  0.37500000  1.953125e-03 
  0.50000000  0.75000000  0.50000000  1.953125e-03 
  0.50000000  0.75000000  0.62500000  1.953125e-03 
  0.50000000  0.75000000  0.75000000  1.953125e-03 
  0.50000000  0.75000000  0.87500000  1.953125e-03 
  0.50000000  0.87500000  0.00000000  1.953125e-03 
  0.50000000  0.87500000  0.12500000  1.953125e-03 
  0.50000000  0.87500000  0.25000000  1.953125e-03 
  0.50000000  0.87500000  0.37500000  1.953125e-03 
  0.50000000  0.87500000  0.50000000  1.953125e-03 
  0.50000000  0.87500000  0.62500000  1.953125e-03 
  0.50000000  0.87500000  0.75000000  1.953125e-03 
  0.50000000  0.87500000  0.87500000  1.953125e-03 
  0.62500000  0.00000000  0.00000000  1.953125e-03 
  0.62500000  0.00000000  0.12500000  1.953125e-03 
  0.62500000  0.00000000  0.25000000  1.953125e-03 
  0.62500000  0.00000000  0.37500000  1.953125e-03 
  0.62500000  0.00000000  0.50000000  1.953125e-03 
  0.62500000  0.00000000  0.62500000  1.953125e-03 
  0.62500000  0.00000000  0.75000000  1.953125e-03 
  0.62500000  0.00000000  0.87500000  1.953125e-03 
  0.62500000  0.12500000  0.00000000  1.953125e-03 
  0.62500000  0.12500000  0.12500000  1.953125e-03 
  0.62500000  0.12500000  0.25000000  1.953125e-03 
  0.62500000  0.12500000  0.37500000  1.953125e-03 
  0.62500000  0.12500000  0.50000000  1.953125e-03 
  0.62500000  0.12500000  0.62500000  1.953125e-03 
  0.62500000  0.12500000  0.75000000  1.953125e-03 
  0.62500000  0.12500000  0.87500000  1.953125e-03 
  0.62500000  0.25000000  0.00000000  1.953125e-03 
  0.62500000  0.25000000  0.12500000  1.953125e-03 
  0.62500000  0.25000000  0.25000000  1.953125e-03 
  0.62500000  0.25000000  0.37500000  1.953125e-03 
  0.62500000  0.25000000  0.50000000  1.953125e-03 
  0.62500000  0.25000000  0.62500000  1.953125e-03 
  0.62500000  0.25000000  0.75000000  1.953125e-03 
  0.62500000  0.25000000  0.87500000  1.953125e-03 
  0.62500000  0.37500000  0.00000000  1.953125e-03 
  0.62500000  0.37500000  0.12500000  1.953125e-03 
  0.62500000  0.37500000  0.25000000  1.953125e-03 
  0.62500000  0.37500000  0.37500000  1.953125e-03 
  0.62500000  0.37500000  0.50000000  1.953125e-03 
  0.62500000  0.37500000  0.62500000  1.953125e-03 
  0.62500000  0.37500000  0.75000000  1.953125e-03 
  0.62500000  0.37500000  0.87500000  1.953125e-03 
  0.62500000  0.50000000  0.00000000  1.953125e-03 
  0.62500000  0.50000000  0.12500000  1.953125e-03 
  0.62500000  0.50000000  0.25000000  1.953125e-03 
  0.62500000  0.50000000  0.37500000  1.953125e-03 
  0.62500000  0.50000000  0.50000000  1.953125e-03 
  0.62500000  0.50000000  0.62500000  1.953125e-03 
  0.62500000  0.50000000  0.75000000  1.953125e-03 
  0.62500000  0.50000000  0.87500000  1.953125e-03 
  0.62500000  0.62500000  0.00000000  1.953125e-03 
  0.62500000  0.62500000  0.12500000  1.953125e-03 
  0.62500000  0.62500000  0.25000000  1.953125e-03 
  0.62500000  0.62500000  0.37500000  1.953125e-03 
  0.62500000  0.62500000  0.50000000  1.953125e-03 
  0.62500000  0.62500000  0.62500000  1.953125e-03 
  0.62500000  0.62500000  0.75000000  1.953125e-03 
  0.62500000  0.62500000  0.87500000  1.953125e-03 
  0.62500000  0.75000000  0.00000000  1.953125e-03 
  0.62500000  0.75000000  0.12500000  1.953125e-03 
  0.62500000  0.75000000  0.25000000  1.953125e-03 
  0.62500000  0.75000000  0.37500000  1.953125e-03 
  0.62500000  0.75000000  0.50000000  1.953125e-03 
  0.62500000  0.75000000  0.62500000  1.953125e-03 
  0.62500000  0.75000000  0.75000000  1.953125e-03 
  0.62500000  0.75000000  0.87500000  1.953125e-03 
  0.62500000  0.87500000  0.00000000  1.953125e-03 
  0.62500000  0.87500000  0.12500000  1.953125e-03 
  0.62500000  0.87500000  0.25000000  1.953125e-03 
  0.62500000  0.87500000  0.37500000  1.953125e-03 
  0.62500000  0.87500000  0.50000000  1.953125e-03 
  0.62500000  0.87500000  0.62500000  1.953125e-03 
  0.62500000  0.87500000  0.75000000  1.953125e-03 
  0.62500000  0.87500000  0.87500000  1.953125e-03 
  0.75000000  0.00000000  0.00000000  1.953125e-03 
  0.75000000  0.00000000  0.12500000  1.953125e-03 
  0.75000000  0.00000000  0.25000000  1.953125e-03 
  0.75000000  0.00000000  0.37500000  1.953125e-03 
  0.75000000  0.00000000  0.50000000  1.953125e-03 
  0.75000000  0.00000000  0.62500000  1.953125e-03 
  0.75000000  0.00000000  0.75000000  1.953125e-03 
  0.75000000  0.00000000  0.87500000  1.953125e-03 
  0.75000000  0.12500000  0.00000000  1.953125e-03 
  0.75000000  0.12500000  0.12500000  1.953125e-03 
  0.75000000  0.12500000  0.25000000  1.953125e-03 
  0.75000000  0.12500000  0.37500000  1.953125e-03 
  0.75000000  0.12500000  0.50000000  1.953125e-03 
  0.75000000  0.12500000  0.62500000  1.953125e-03 
  0.75000000  0.12500000  0.75000000  1.953125e-03 
  0.75000000  0.12500000  0.87500000  1.953125e-03 
  0.75000000  0.25000000  0.00000000  1.953125e-03 
  0.75000000  0.25000000  0.12500000  1.953125e-03 
  0.75000000  0.25000000  0.25000000  1.953125e-03 
  0.75000000  0.25000000  0.37500000  1.953125e-03 
  0.75000000  0.25000000  0.50000000  1.953125e-03 
  0.75000000  0.25000000  0.62500000  1.953125e-03 
  0.75000000  0.25000000  0.75000000  1.953125e-03 
  0.75000000  0.25000000  0.87500000  1.953125e-03 
  0.75000000  0.37500000  0.00000000  1.953125e-03 
  0.75000000  0.37500000  0.12500000  1.953125e-03 
  0.75000000  0.37500000  0.25000000  1.953125e-03 
  0.75000000  0.37500000  0.37500000  1.953125e-03 
  0.75000000  0.37500000  0.50000000  1.953125e-03 
  0.75000000  0.37500000  0.62500000  1.953125e-03 
  0.75000000  0.37500000  0.75000000  1.953125e-03 
  0.75000000  0.37500000  0.87500000  1.953125e-03 
  0.75000000  0.50000000  0.00000000  1.953125e-03 
  0.75000000  0.50000000  0.12500000  1.953125e-03 
  0.75000000  0.50000000  0.25000000  1.953125e-03 
  0.75000000  0.50000000  0.37500000  1.953125e-03 
  0.75000000  0.50000000  0.50000000  1.953125e-03 
  0.75000000  0.50000000  0.62500000  1.953125e-03 
  0.75000000  0.50000000  0.75000000  1.953125e-03 
  0.75000000  0.50000000  0.87500000  1.953125e-03 
  0.75000000  0.62500000  0.00000000  1.953125e-03 
  0.75000000  0.62500000  0.12500000  1.953125e-03 
  0.75000000  0.62500000  0.25000000  1.953125e-03 
  0.75000000  0.62500000  0.37500000  1.953125e-03 
  0.75000000  0.62500000  0.50000000  1.953125e-03 
  0.75000000  0.62500000  0.62500000  1.953125e-03 
  0.75000000  0.62500000  0.75000000  1.953125e-03 
  0.75000000  0.62500000  0.87500000  1.953125e-03 
  0.75000000  0.75000000  0.00000000  1.953125e-03 
  0.75000000  0.75000000  0.12500000  1.953125e-03 
  0.75000000  0.75000000  0.25000000  1.953125e-03 
  0.75000000  0.75000000  0.37500000  1.953125e-03 
  0.75000000  0.75000000  0.50000000  1.953125e-03 
  0.75000000  0.75000000  0.62500000  1.953125e-03 
  0.75000000  0.75000000  0.75000000  1.953125e-03 
  0.75000000  0.75000000  0.87500000  1.953125e-03 
  0.75000000  0.87500000  0.00000000  1.953125e-03 
  0.75000000  0.87500000  0.12500000  1.953125e-03 
  0.75000000  0.87500000  0.25000000  1.953125e-03 
  0.75000000  0.87500000  0.37500000  1.953125e-03 
  0.75000000  0.87500000  0.50000000  1.953125e-03 
  0.75000000  0.87500000  0.62500000  1.953125e-03 
  0.75000000  0.87500000  0.75000000  1.953125e-03 
  0.75000000  0.87500000  0.87500000  1.953125e-03 
  0.87500000  0.00000000  0.00000000  1.953125e-03 
  0.87500000  0.00000000  0.12500000  1.953125e-03 
  0.87500000  0.00000000  0.25000000  1.953125e-03 
  0.87500000  0.00000000  0.37500000  1.953125e-03 
  0.87500000  0.00000000  0.50000000  1.953125e-03 
  0.87500000  0.00000000  0.62500000  1.953125e-03 
  0.87500000  0.00000000  0.75000000  1.953125e-03 
  0.87500000  0.00000000  0.87500000  1.953125e-03 
  0.87500000  0.12500000  0.00000000  1.953125e-03 
  0.87500000  0.12500000  0.12500000  1.953125e-03 
  0.87500000  0.12500000  0.25000000  1.953125e-03 
  0.87500000  0.12500000  0.37500000  1.953125e-03 
  0.87500000  0.12500000  0.50000000  1.953125e-03 
  0.87500000  0.12500000  0.62500000  1.953125e-03 
  0.87500000  0.12500000  0.75000000  1.953125e-03 
  0.87500000  0.12500000  0.87500000  1.953125e-03 
  0.87500000  0.25000000  0.00000000  1.953125e-03 
  0.87500000  0.25000000  0.12500000  1.953125e-03 
  0.87500000  0.25000000  0.25000000  1.953125e-03 
  0.87500000  0.25000000  0.37500000  1.953125e-03 
  0.87500000  0.25000000  0.50000000  1.953125e-03 
  0.87500000  0.25000000  0.62500000  1.953125e-03 
  0.87500000  0.25000000  0.75000000  1.953125e-03 
  0.87500000  0.25000000  0.87500000  1.953125e-03 
  0.87500000  0.37500000  0.00000000  1.953125e-03 
  0.87500000  0.37500000  0.12500000  1.953125e-03 
  0.87500000  0.37500000  0.25000000  1.953125e-03 
  0.87500000  0.37500000  0.37500000  1.953125e-03 
  0.87500000  0.37500000  0.50000000  1.953125e-03 
  0.87500000  0.37500000  0.62500000  1.953125e-03 
  0.87500000  0.37500000  0.75000000  1.953125e-03 
  0.87500000  0.37500000  0.87500000  1.953125e-03 
  0.87500000  0.50000000  0.00000000  1.953125e-03 
  0.87500000  0.50000000  0.12500000  1.953125e-03 
  0.87500000  0.50000000  0.25000000  1.953125e-03 
  0.87500000  0.50000000  0.37500000  1.953125e-03 
  0.87500000  0.50000000  0.50000000  1.953125e-03 
  0.87500000  0.50000000  0.62500000  1.953125e-03 
  0.87500000  0.50000000  0.75000000  1.953125e-03 
  0.87500000  0.50000000  0.87500000  1.953125e-03 
  0.87500000  0.62500000  0.00000000  1.953125e-03 
  0.87500000  0.62500000  0.12500000  1.953125e-03 
  0.87500000  0.62500000  0.25000000  1.953125e-03 
  0.87500000  0.62500000  0.37500000  1.953125e-03 
  0.87500000  0.62500000  0.50000000  1.953125e-03 
  0.87500000  0.62500000  0.62500000  1.953125e-03 
  0.87500000  0.62500000  0.75000000  1.953125e-03 
  0.87500000  0.62500000  0.87500000  1.953125e-03 
  0.87500000  0.75000000  0.00000000  1.953125e-03 
  0.87500000  0.75000000  0.12500000  1.953125e-03 
  0.87500000  0.75000000  0.25000000  1.953125e-03 
  0.87500000  0.75000000  0.37500000  1.953125e-03 
  0.87500000  0.75000000  0.50000000  1.953125e-03 
  0.87500000  0.75000000  0.62500000  1.953125e-03 
  0.87500000  0.75000000  0.75000000  1.953125e-03 
  0.87500000  0.75000000  0.87500000  1.953125e-03 
  0.87500000  0.87500000  0.00000000  1.953125e-03 
  0.87500000  0.87500000  0.12500000  1.953125e-03 
  0.87500000  0.87500000  0.25000000  1.953125e-03 
  0.87500000  0.87500000  0.37500000  1.953125e-03 
  0.87500000  0.87500000  0.50000000  1.953125e-03 
  0.87500000  0.87500000  0.62500000  1.953125e-03 
  0.87500000  0.87500000  0.75000000  1.953125e-03 
  0.87500000  0.87500000  0.87500000  1.953125e-03 
end kpoints
