 &CONTROL
                 calculation = 'nscf'
                restart_mode = 'restart'
                      outdir = './tempdir/'
                  pseudo_dir = '../../pseudo/'
                      prefix = 'Pt'
 /
 &SYSTEM
                       ibrav = 2
                           a = 3.92
                         nat = 1
                        ntyp = 1
                        nbnd = 40
                     ecutwfc = 90
                     ecutrho = 1080
                 occupations = 'smearing'
                    smearing = 'mv'
                     degauss = 0.002
                    noncolin = .true.
                    lspinorb = .true.
                       nosym = .true.
 /
 &ELECTRONS
                    conv_thr = 1.0D-8
 /

ATOMIC_SPECIES
   Pt    195.07800  Pt.rel-pbe-n-kjpaw_psl.0.1.UPF

ATOMIC_POSITIONS {bohr}
Pt      0.0000000   0.0000000   0.0000000

K_POINTS {crystal}
1000
  0.00000000  0.00000000  0.00000000  1.000000e-03 
  0.00000000  0.00000000  0.10000000  1.000000e-03 
  0.00000000  0.00000000  0.20000000  1.000000e-03 
  0.00000000  0.00000000  0.30000000  1.000000e-03 
  0.00000000  0.00000000  0.40000000  1.000000e-03 
  0.00000000  0.00000000  0.50000000  1.000000e-03 
  0.00000000  0.00000000  0.60000000  1.000000e-03 
  0.00000000  0.00000000  0.70000000  1.000000e-03 
  0.00000000  0.00000000  0.80000000  1.000000e-03 
  0.00000000  0.00000000  0.90000000  1.000000e-03 
  0.00000000  0.10000000  0.00000000  1.000000e-03 
  0.00000000  0.10000000  0.10000000  1.000000e-03 
  0.00000000  0.10000000  0.20000000  1.000000e-03 
  0.00000000  0.10000000  0.30000000  1.000000e-03 
  0.00000000  0.10000000  0.40000000  1.000000e-03 
  0.00000000  0.10000000  0.50000000  1.000000e-03 
  0.00000000  0.10000000  0.60000000  1.000000e-03 
  0.00000000  0.10000000  0.70000000  1.000000e-03 
  0.00000000  0.10000000  0.80000000  1.000000e-03 
  0.00000000  0.10000000  0.90000000  1.000000e-03 
  0.00000000  0.20000000  0.00000000  1.000000e-03 
  0.00000000  0.20000000  0.10000000  1.000000e-03 
  0.00000000  0.20000000  0.20000000  1.000000e-03 
  0.00000000  0.20000000  0.30000000  1.000000e-03 
  0.00000000  0.20000000  0.40000000  1.000000e-03 
  0.00000000  0.20000000  0.50000000  1.000000e-03 
  0.00000000  0.20000000  0.60000000  1.000000e-03 
  0.00000000  0.20000000  0.70000000  1.000000e-03 
  0.00000000  0.20000000  0.80000000  1.000000e-03 
  0.00000000  0.20000000  0.90000000  1.000000e-03 
  0.00000000  0.30000000  0.00000000  1.000000e-03 
  0.00000000  0.30000000  0.10000000  1.000000e-03 
  0.00000000  0.30000000  0.20000000  1.000000e-03 
  0.00000000  0.30000000  0.30000000  1.000000e-03 
  0.00000000  0.30000000  0.40000000  1.000000e-03 
  0.00000000  0.30000000  0.50000000  1.000000e-03 
  0.00000000  0.30000000  0.60000000  1.000000e-03 
  0.00000000  0.30000000  0.70000000  1.000000e-03 
  0.00000000  0.30000000  0.80000000  1.000000e-03 
  0.00000000  0.30000000  0.90000000  1.000000e-03 
  0.00000000  0.40000000  0.00000000  1.000000e-03 
  0.00000000  0.40000000  0.10000000  1.000000e-03 
  0.00000000  0.40000000  0.20000000  1.000000e-03 
  0.00000000  0.40000000  0.30000000  1.000000e-03 
  0.00000000  0.40000000  0.40000000  1.000000e-03 
  0.00000000  0.40000000  0.50000000  1.000000e-03 
  0.00000000  0.40000000  0.60000000  1.000000e-03 
  0.00000000  0.40000000  0.70000000  1.000000e-03 
  0.00000000  0.40000000  0.80000000  1.000000e-03 
  0.00000000  0.40000000  0.90000000  1.000000e-03 
  0.00000000  0.50000000  0.00000000  1.000000e-03 
  0.00000000  0.50000000  0.10000000  1.000000e-03 
  0.00000000  0.50000000  0.20000000  1.000000e-03 
  0.00000000  0.50000000  0.30000000  1.000000e-03 
  0.00000000  0.50000000  0.40000000  1.000000e-03 
  0.00000000  0.50000000  0.50000000  1.000000e-03 
  0.00000000  0.50000000  0.60000000  1.000000e-03 
  0.00000000  0.50000000  0.70000000  1.000000e-03 
  0.00000000  0.50000000  0.80000000  1.000000e-03 
  0.00000000  0.50000000  0.90000000  1.000000e-03 
  0.00000000  0.60000000  0.00000000  1.000000e-03 
  0.00000000  0.60000000  0.10000000  1.000000e-03 
  0.00000000  0.60000000  0.20000000  1.000000e-03 
  0.00000000  0.60000000  0.30000000  1.000000e-03 
  0.00000000  0.60000000  0.40000000  1.000000e-03 
  0.00000000  0.60000000  0.50000000  1.000000e-03 
  0.00000000  0.60000000  0.60000000  1.000000e-03 
  0.00000000  0.60000000  0.70000000  1.000000e-03 
  0.00000000  0.60000000  0.80000000  1.000000e-03 
  0.00000000  0.60000000  0.90000000  1.000000e-03 
  0.00000000  0.70000000  0.00000000  1.000000e-03 
  0.00000000  0.70000000  0.10000000  1.000000e-03 
  0.00000000  0.70000000  0.20000000  1.000000e-03 
  0.00000000  0.70000000  0.30000000  1.000000e-03 
  0.00000000  0.70000000  0.40000000  1.000000e-03 
  0.00000000  0.70000000  0.50000000  1.000000e-03 
  0.00000000  0.70000000  0.60000000  1.000000e-03 
  0.00000000  0.70000000  0.70000000  1.000000e-03 
  0.00000000  0.70000000  0.80000000  1.000000e-03 
  0.00000000  0.70000000  0.90000000  1.000000e-03 
  0.00000000  0.80000000  0.00000000  1.000000e-03 
  0.00000000  0.80000000  0.10000000  1.000000e-03 
  0.00000000  0.80000000  0.20000000  1.000000e-03 
  0.00000000  0.80000000  0.30000000  1.000000e-03 
  0.00000000  0.80000000  0.40000000  1.000000e-03 
  0.00000000  0.80000000  0.50000000  1.000000e-03 
  0.00000000  0.80000000  0.60000000  1.000000e-03 
  0.00000000  0.80000000  0.70000000  1.000000e-03 
  0.00000000  0.80000000  0.80000000  1.000000e-03 
  0.00000000  0.80000000  0.90000000  1.000000e-03 
  0.00000000  0.90000000  0.00000000  1.000000e-03 
  0.00000000  0.90000000  0.10000000  1.000000e-03 
  0.00000000  0.90000000  0.20000000  1.000000e-03 
  0.00000000  0.90000000  0.30000000  1.000000e-03 
  0.00000000  0.90000000  0.40000000  1.000000e-03 
  0.00000000  0.90000000  0.50000000  1.000000e-03 
  0.00000000  0.90000000  0.60000000  1.000000e-03 
  0.00000000  0.90000000  0.70000000  1.000000e-03 
  0.00000000  0.90000000  0.80000000  1.000000e-03 
  0.00000000  0.90000000  0.90000000  1.000000e-03 
  0.10000000  0.00000000  0.00000000  1.000000e-03 
  0.10000000  0.00000000  0.10000000  1.000000e-03 
  0.10000000  0.00000000  0.20000000  1.000000e-03 
  0.10000000  0.00000000  0.30000000  1.000000e-03 
  0.10000000  0.00000000  0.40000000  1.000000e-03 
  0.10000000  0.00000000  0.50000000  1.000000e-03 
  0.10000000  0.00000000  0.60000000  1.000000e-03 
  0.10000000  0.00000000  0.70000000  1.000000e-03 
  0.10000000  0.00000000  0.80000000  1.000000e-03 
  0.10000000  0.00000000  0.90000000  1.000000e-03 
  0.10000000  0.10000000  0.00000000  1.000000e-03 
  0.10000000  0.10000000  0.10000000  1.000000e-03 
  0.10000000  0.10000000  0.20000000  1.000000e-03 
  0.10000000  0.10000000  0.30000000  1.000000e-03 
  0.10000000  0.10000000  0.40000000  1.000000e-03 
  0.10000000  0.10000000  0.50000000  1.000000e-03 
  0.10000000  0.10000000  0.60000000  1.000000e-03 
  0.10000000  0.10000000  0.70000000  1.000000e-03 
  0.10000000  0.10000000  0.80000000  1.000000e-03 
  0.10000000  0.10000000  0.90000000  1.000000e-03 
  0.10000000  0.20000000  0.00000000  1.000000e-03 
  0.10000000  0.20000000  0.10000000  1.000000e-03 
  0.10000000  0.20000000  0.20000000  1.000000e-03 
  0.10000000  0.20000000  0.30000000  1.000000e-03 
  0.10000000  0.20000000  0.40000000  1.000000e-03 
  0.10000000  0.20000000  0.50000000  1.000000e-03 
  0.10000000  0.20000000  0.60000000  1.000000e-03 
  0.10000000  0.20000000  0.70000000  1.000000e-03 
  0.10000000  0.20000000  0.80000000  1.000000e-03 
  0.10000000  0.20000000  0.90000000  1.000000e-03 
  0.10000000  0.30000000  0.00000000  1.000000e-03 
  0.10000000  0.30000000  0.10000000  1.000000e-03 
  0.10000000  0.30000000  0.20000000  1.000000e-03 
  0.10000000  0.30000000  0.30000000  1.000000e-03 
  0.10000000  0.30000000  0.40000000  1.000000e-03 
  0.10000000  0.30000000  0.50000000  1.000000e-03 
  0.10000000  0.30000000  0.60000000  1.000000e-03 
  0.10000000  0.30000000  0.70000000  1.000000e-03 
  0.10000000  0.30000000  0.80000000  1.000000e-03 
  0.10000000  0.30000000  0.90000000  1.000000e-03 
  0.10000000  0.40000000  0.00000000  1.000000e-03 
  0.10000000  0.40000000  0.10000000  1.000000e-03 
  0.10000000  0.40000000  0.20000000  1.000000e-03 
  0.10000000  0.40000000  0.30000000  1.000000e-03 
  0.10000000  0.40000000  0.40000000  1.000000e-03 
  0.10000000  0.40000000  0.50000000  1.000000e-03 
  0.10000000  0.40000000  0.60000000  1.000000e-03 
  0.10000000  0.40000000  0.70000000  1.000000e-03 
  0.10000000  0.40000000  0.80000000  1.000000e-03 
  0.10000000  0.40000000  0.90000000  1.000000e-03 
  0.10000000  0.50000000  0.00000000  1.000000e-03 
  0.10000000  0.50000000  0.10000000  1.000000e-03 
  0.10000000  0.50000000  0.20000000  1.000000e-03 
  0.10000000  0.50000000  0.30000000  1.000000e-03 
  0.10000000  0.50000000  0.40000000  1.000000e-03 
  0.10000000  0.50000000  0.50000000  1.000000e-03 
  0.10000000  0.50000000  0.60000000  1.000000e-03 
  0.10000000  0.50000000  0.70000000  1.000000e-03 
  0.10000000  0.50000000  0.80000000  1.000000e-03 
  0.10000000  0.50000000  0.90000000  1.000000e-03 
  0.10000000  0.60000000  0.00000000  1.000000e-03 
  0.10000000  0.60000000  0.10000000  1.000000e-03 
  0.10000000  0.60000000  0.20000000  1.000000e-03 
  0.10000000  0.60000000  0.30000000  1.000000e-03 
  0.10000000  0.60000000  0.40000000  1.000000e-03 
  0.10000000  0.60000000  0.50000000  1.000000e-03 
  0.10000000  0.60000000  0.60000000  1.000000e-03 
  0.10000000  0.60000000  0.70000000  1.000000e-03 
  0.10000000  0.60000000  0.80000000  1.000000e-03 
  0.10000000  0.60000000  0.90000000  1.000000e-03 
  0.10000000  0.70000000  0.00000000  1.000000e-03 
  0.10000000  0.70000000  0.10000000  1.000000e-03 
  0.10000000  0.70000000  0.20000000  1.000000e-03 
  0.10000000  0.70000000  0.30000000  1.000000e-03 
  0.10000000  0.70000000  0.40000000  1.000000e-03 
  0.10000000  0.70000000  0.50000000  1.000000e-03 
  0.10000000  0.70000000  0.60000000  1.000000e-03 
  0.10000000  0.70000000  0.70000000  1.000000e-03 
  0.10000000  0.70000000  0.80000000  1.000000e-03 
  0.10000000  0.70000000  0.90000000  1.000000e-03 
  0.10000000  0.80000000  0.00000000  1.000000e-03 
  0.10000000  0.80000000  0.10000000  1.000000e-03 
  0.10000000  0.80000000  0.20000000  1.000000e-03 
  0.10000000  0.80000000  0.30000000  1.000000e-03 
  0.10000000  0.80000000  0.40000000  1.000000e-03 
  0.10000000  0.80000000  0.50000000  1.000000e-03 
  0.10000000  0.80000000  0.60000000  1.000000e-03 
  0.10000000  0.80000000  0.70000000  1.000000e-03 
  0.10000000  0.80000000  0.80000000  1.000000e-03 
  0.10000000  0.80000000  0.90000000  1.000000e-03 
  0.10000000  0.90000000  0.00000000  1.000000e-03 
  0.10000000  0.90000000  0.10000000  1.000000e-03 
  0.10000000  0.90000000  0.20000000  1.000000e-03 
  0.10000000  0.90000000  0.30000000  1.000000e-03 
  0.10000000  0.90000000  0.40000000  1.000000e-03 
  0.10000000  0.90000000  0.50000000  1.000000e-03 
  0.10000000  0.90000000  0.60000000  1.000000e-03 
  0.10000000  0.90000000  0.70000000  1.000000e-03 
  0.10000000  0.90000000  0.80000000  1.000000e-03 
  0.10000000  0.90000000  0.90000000  1.000000e-03 
  0.20000000  0.00000000  0.00000000  1.000000e-03 
  0.20000000  0.00000000  0.10000000  1.000000e-03 
  0.20000000  0.00000000  0.20000000  1.000000e-03 
  0.20000000  0.00000000  0.30000000  1.000000e-03 
  0.20000000  0.00000000  0.40000000  1.000000e-03 
  0.20000000  0.00000000  0.50000000  1.000000e-03 
  0.20000000  0.00000000  0.60000000  1.000000e-03 
  0.20000000  0.00000000  0.70000000  1.000000e-03 
  0.20000000  0.00000000  0.80000000  1.000000e-03 
  0.20000000  0.00000000  0.90000000  1.000000e-03 
  0.20000000  0.10000000  0.00000000  1.000000e-03 
  0.20000000  0.10000000  0.10000000  1.000000e-03 
  0.20000000  0.10000000  0.20000000  1.000000e-03 
  0.20000000  0.10000000  0.30000000  1.000000e-03 
  0.20000000  0.10000000  0.40000000  1.000000e-03 
  0.20000000  0.10000000  0.50000000  1.000000e-03 
  0.20000000  0.10000000  0.60000000  1.000000e-03 
  0.20000000  0.10000000  0.70000000  1.000000e-03 
  0.20000000  0.10000000  0.80000000  1.000000e-03 
  0.20000000  0.10000000  0.90000000  1.000000e-03 
  0.20000000  0.20000000  0.00000000  1.000000e-03 
  0.20000000  0.20000000  0.10000000  1.000000e-03 
  0.20000000  0.20000000  0.20000000  1.000000e-03 
  0.20000000  0.20000000  0.30000000  1.000000e-03 
  0.20000000  0.20000000  0.40000000  1.000000e-03 
  0.20000000  0.20000000  0.50000000  1.000000e-03 
  0.20000000  0.20000000  0.60000000  1.000000e-03 
  0.20000000  0.20000000  0.70000000  1.000000e-03 
  0.20000000  0.20000000  0.80000000  1.000000e-03 
  0.20000000  0.20000000  0.90000000  1.000000e-03 
  0.20000000  0.30000000  0.00000000  1.000000e-03 
  0.20000000  0.30000000  0.10000000  1.000000e-03 
  0.20000000  0.30000000  0.20000000  1.000000e-03 
  0.20000000  0.30000000  0.30000000  1.000000e-03 
  0.20000000  0.30000000  0.40000000  1.000000e-03 
  0.20000000  0.30000000  0.50000000  1.000000e-03 
  0.20000000  0.30000000  0.60000000  1.000000e-03 
  0.20000000  0.30000000  0.70000000  1.000000e-03 
  0.20000000  0.30000000  0.80000000  1.000000e-03 
  0.20000000  0.30000000  0.90000000  1.000000e-03 
  0.20000000  0.40000000  0.00000000  1.000000e-03 
  0.20000000  0.40000000  0.10000000  1.000000e-03 
  0.20000000  0.40000000  0.20000000  1.000000e-03 
  0.20000000  0.40000000  0.30000000  1.000000e-03 
  0.20000000  0.40000000  0.40000000  1.000000e-03 
  0.20000000  0.40000000  0.50000000  1.000000e-03 
  0.20000000  0.40000000  0.60000000  1.000000e-03 
  0.20000000  0.40000000  0.70000000  1.000000e-03 
  0.20000000  0.40000000  0.80000000  1.000000e-03 
  0.20000000  0.40000000  0.90000000  1.000000e-03 
  0.20000000  0.50000000  0.00000000  1.000000e-03 
  0.20000000  0.50000000  0.10000000  1.000000e-03 
  0.20000000  0.50000000  0.20000000  1.000000e-03 
  0.20000000  0.50000000  0.30000000  1.000000e-03 
  0.20000000  0.50000000  0.40000000  1.000000e-03 
  0.20000000  0.50000000  0.50000000  1.000000e-03 
  0.20000000  0.50000000  0.60000000  1.000000e-03 
  0.20000000  0.50000000  0.70000000  1.000000e-03 
  0.20000000  0.50000000  0.80000000  1.000000e-03 
  0.20000000  0.50000000  0.90000000  1.000000e-03 
  0.20000000  0.60000000  0.00000000  1.000000e-03 
  0.20000000  0.60000000  0.10000000  1.000000e-03 
  0.20000000  0.60000000  0.20000000  1.000000e-03 
  0.20000000  0.60000000  0.30000000  1.000000e-03 
  0.20000000  0.60000000  0.40000000  1.000000e-03 
  0.20000000  0.60000000  0.50000000  1.000000e-03 
  0.20000000  0.60000000  0.60000000  1.000000e-03 
  0.20000000  0.60000000  0.70000000  1.000000e-03 
  0.20000000  0.60000000  0.80000000  1.000000e-03 
  0.20000000  0.60000000  0.90000000  1.000000e-03 
  0.20000000  0.70000000  0.00000000  1.000000e-03 
  0.20000000  0.70000000  0.10000000  1.000000e-03 
  0.20000000  0.70000000  0.20000000  1.000000e-03 
  0.20000000  0.70000000  0.30000000  1.000000e-03 
  0.20000000  0.70000000  0.40000000  1.000000e-03 
  0.20000000  0.70000000  0.50000000  1.000000e-03 
  0.20000000  0.70000000  0.60000000  1.000000e-03 
  0.20000000  0.70000000  0.70000000  1.000000e-03 
  0.20000000  0.70000000  0.80000000  1.000000e-03 
  0.20000000  0.70000000  0.90000000  1.000000e-03 
  0.20000000  0.80000000  0.00000000  1.000000e-03 
  0.20000000  0.80000000  0.10000000  1.000000e-03 
  0.20000000  0.80000000  0.20000000  1.000000e-03 
  0.20000000  0.80000000  0.30000000  1.000000e-03 
  0.20000000  0.80000000  0.40000000  1.000000e-03 
  0.20000000  0.80000000  0.50000000  1.000000e-03 
  0.20000000  0.80000000  0.60000000  1.000000e-03 
  0.20000000  0.80000000  0.70000000  1.000000e-03 
  0.20000000  0.80000000  0.80000000  1.000000e-03 
  0.20000000  0.80000000  0.90000000  1.000000e-03 
  0.20000000  0.90000000  0.00000000  1.000000e-03 
  0.20000000  0.90000000  0.10000000  1.000000e-03 
  0.20000000  0.90000000  0.20000000  1.000000e-03 
  0.20000000  0.90000000  0.30000000  1.000000e-03 
  0.20000000  0.90000000  0.40000000  1.000000e-03 
  0.20000000  0.90000000  0.50000000  1.000000e-03 
  0.20000000  0.90000000  0.60000000  1.000000e-03 
  0.20000000  0.90000000  0.70000000  1.000000e-03 
  0.20000000  0.90000000  0.80000000  1.000000e-03 
  0.20000000  0.90000000  0.90000000  1.000000e-03 
  0.30000000  0.00000000  0.00000000  1.000000e-03 
  0.30000000  0.00000000  0.10000000  1.000000e-03 
  0.30000000  0.00000000  0.20000000  1.000000e-03 
  0.30000000  0.00000000  0.30000000  1.000000e-03 
  0.30000000  0.00000000  0.40000000  1.000000e-03 
  0.30000000  0.00000000  0.50000000  1.000000e-03 
  0.30000000  0.00000000  0.60000000  1.000000e-03 
  0.30000000  0.00000000  0.70000000  1.000000e-03 
  0.30000000  0.00000000  0.80000000  1.000000e-03 
  0.30000000  0.00000000  0.90000000  1.000000e-03 
  0.30000000  0.10000000  0.00000000  1.000000e-03 
  0.30000000  0.10000000  0.10000000  1.000000e-03 
  0.30000000  0.10000000  0.20000000  1.000000e-03 
  0.30000000  0.10000000  0.30000000  1.000000e-03 
  0.30000000  0.10000000  0.40000000  1.000000e-03 
  0.30000000  0.10000000  0.50000000  1.000000e-03 
  0.30000000  0.10000000  0.60000000  1.000000e-03 
  0.30000000  0.10000000  0.70000000  1.000000e-03 
  0.30000000  0.10000000  0.80000000  1.000000e-03 
  0.30000000  0.10000000  0.90000000  1.000000e-03 
  0.30000000  0.20000000  0.00000000  1.000000e-03 
  0.30000000  0.20000000  0.10000000  1.000000e-03 
  0.30000000  0.20000000  0.20000000  1.000000e-03 
  0.30000000  0.20000000  0.30000000  1.000000e-03 
  0.30000000  0.20000000  0.40000000  1.000000e-03 
  0.30000000  0.20000000  0.50000000  1.000000e-03 
  0.30000000  0.20000000  0.60000000  1.000000e-03 
  0.30000000  0.20000000  0.70000000  1.000000e-03 
  0.30000000  0.20000000  0.80000000  1.000000e-03 
  0.30000000  0.20000000  0.90000000  1.000000e-03 
  0.30000000  0.30000000  0.00000000  1.000000e-03 
  0.30000000  0.30000000  0.10000000  1.000000e-03 
  0.30000000  0.30000000  0.20000000  1.000000e-03 
  0.30000000  0.30000000  0.30000000  1.000000e-03 
  0.30000000  0.30000000  0.40000000  1.000000e-03 
  0.30000000  0.30000000  0.50000000  1.000000e-03 
  0.30000000  0.30000000  0.60000000  1.000000e-03 
  0.30000000  0.30000000  0.70000000  1.000000e-03 
  0.30000000  0.30000000  0.80000000  1.000000e-03 
  0.30000000  0.30000000  0.90000000  1.000000e-03 
  0.30000000  0.40000000  0.00000000  1.000000e-03 
  0.30000000  0.40000000  0.10000000  1.000000e-03 
  0.30000000  0.40000000  0.20000000  1.000000e-03 
  0.30000000  0.40000000  0.30000000  1.000000e-03 
  0.30000000  0.40000000  0.40000000  1.000000e-03 
  0.30000000  0.40000000  0.50000000  1.000000e-03 
  0.30000000  0.40000000  0.60000000  1.000000e-03 
  0.30000000  0.40000000  0.70000000  1.000000e-03 
  0.30000000  0.40000000  0.80000000  1.000000e-03 
  0.30000000  0.40000000  0.90000000  1.000000e-03 
  0.30000000  0.50000000  0.00000000  1.000000e-03 
  0.30000000  0.50000000  0.10000000  1.000000e-03 
  0.30000000  0.50000000  0.20000000  1.000000e-03 
  0.30000000  0.50000000  0.30000000  1.000000e-03 
  0.30000000  0.50000000  0.40000000  1.000000e-03 
  0.30000000  0.50000000  0.50000000  1.000000e-03 
  0.30000000  0.50000000  0.60000000  1.000000e-03 
  0.30000000  0.50000000  0.70000000  1.000000e-03 
  0.30000000  0.50000000  0.80000000  1.000000e-03 
  0.30000000  0.50000000  0.90000000  1.000000e-03 
  0.30000000  0.60000000  0.00000000  1.000000e-03 
  0.30000000  0.60000000  0.10000000  1.000000e-03 
  0.30000000  0.60000000  0.20000000  1.000000e-03 
  0.30000000  0.60000000  0.30000000  1.000000e-03 
  0.30000000  0.60000000  0.40000000  1.000000e-03 
  0.30000000  0.60000000  0.50000000  1.000000e-03 
  0.30000000  0.60000000  0.60000000  1.000000e-03 
  0.30000000  0.60000000  0.70000000  1.000000e-03 
  0.30000000  0.60000000  0.80000000  1.000000e-03 
  0.30000000  0.60000000  0.90000000  1.000000e-03 
  0.30000000  0.70000000  0.00000000  1.000000e-03 
  0.30000000  0.70000000  0.10000000  1.000000e-03 
  0.30000000  0.70000000  0.20000000  1.000000e-03 
  0.30000000  0.70000000  0.30000000  1.000000e-03 
  0.30000000  0.70000000  0.40000000  1.000000e-03 
  0.30000000  0.70000000  0.50000000  1.000000e-03 
  0.30000000  0.70000000  0.60000000  1.000000e-03 
  0.30000000  0.70000000  0.70000000  1.000000e-03 
  0.30000000  0.70000000  0.80000000  1.000000e-03 
  0.30000000  0.70000000  0.90000000  1.000000e-03 
  0.30000000  0.80000000  0.00000000  1.000000e-03 
  0.30000000  0.80000000  0.10000000  1.000000e-03 
  0.30000000  0.80000000  0.20000000  1.000000e-03 
  0.30000000  0.80000000  0.30000000  1.000000e-03 
  0.30000000  0.80000000  0.40000000  1.000000e-03 
  0.30000000  0.80000000  0.50000000  1.000000e-03 
  0.30000000  0.80000000  0.60000000  1.000000e-03 
  0.30000000  0.80000000  0.70000000  1.000000e-03 
  0.30000000  0.80000000  0.80000000  1.000000e-03 
  0.30000000  0.80000000  0.90000000  1.000000e-03 
  0.30000000  0.90000000  0.00000000  1.000000e-03 
  0.30000000  0.90000000  0.10000000  1.000000e-03 
  0.30000000  0.90000000  0.20000000  1.000000e-03 
  0.30000000  0.90000000  0.30000000  1.000000e-03 
  0.30000000  0.90000000  0.40000000  1.000000e-03 
  0.30000000  0.90000000  0.50000000  1.000000e-03 
  0.30000000  0.90000000  0.60000000  1.000000e-03 
  0.30000000  0.90000000  0.70000000  1.000000e-03 
  0.30000000  0.90000000  0.80000000  1.000000e-03 
  0.30000000  0.90000000  0.90000000  1.000000e-03 
  0.40000000  0.00000000  0.00000000  1.000000e-03 
  0.40000000  0.00000000  0.10000000  1.000000e-03 
  0.40000000  0.00000000  0.20000000  1.000000e-03 
  0.40000000  0.00000000  0.30000000  1.000000e-03 
  0.40000000  0.00000000  0.40000000  1.000000e-03 
  0.40000000  0.00000000  0.50000000  1.000000e-03 
  0.40000000  0.00000000  0.60000000  1.000000e-03 
  0.40000000  0.00000000  0.70000000  1.000000e-03 
  0.40000000  0.00000000  0.80000000  1.000000e-03 
  0.40000000  0.00000000  0.90000000  1.000000e-03 
  0.40000000  0.10000000  0.00000000  1.000000e-03 
  0.40000000  0.10000000  0.10000000  1.000000e-03 
  0.40000000  0.10000000  0.20000000  1.000000e-03 
  0.40000000  0.10000000  0.30000000  1.000000e-03 
  0.40000000  0.10000000  0.40000000  1.000000e-03 
  0.40000000  0.10000000  0.50000000  1.000000e-03 
  0.40000000  0.10000000  0.60000000  1.000000e-03 
  0.40000000  0.10000000  0.70000000  1.000000e-03 
  0.40000000  0.10000000  0.80000000  1.000000e-03 
  0.40000000  0.10000000  0.90000000  1.000000e-03 
  0.40000000  0.20000000  0.00000000  1.000000e-03 
  0.40000000  0.20000000  0.10000000  1.000000e-03 
  0.40000000  0.20000000  0.20000000  1.000000e-03 
  0.40000000  0.20000000  0.30000000  1.000000e-03 
  0.40000000  0.20000000  0.40000000  1.000000e-03 
  0.40000000  0.20000000  0.50000000  1.000000e-03 
  0.40000000  0.20000000  0.60000000  1.000000e-03 
  0.40000000  0.20000000  0.70000000  1.000000e-03 
  0.40000000  0.20000000  0.80000000  1.000000e-03 
  0.40000000  0.20000000  0.90000000  1.000000e-03 
  0.40000000  0.30000000  0.00000000  1.000000e-03 
  0.40000000  0.30000000  0.10000000  1.000000e-03 
  0.40000000  0.30000000  0.20000000  1.000000e-03 
  0.40000000  0.30000000  0.30000000  1.000000e-03 
  0.40000000  0.30000000  0.40000000  1.000000e-03 
  0.40000000  0.30000000  0.50000000  1.000000e-03 
  0.40000000  0.30000000  0.60000000  1.000000e-03 
  0.40000000  0.30000000  0.70000000  1.000000e-03 
  0.40000000  0.30000000  0.80000000  1.000000e-03 
  0.40000000  0.30000000  0.90000000  1.000000e-03 
  0.40000000  0.40000000  0.00000000  1.000000e-03 
  0.40000000  0.40000000  0.10000000  1.000000e-03 
  0.40000000  0.40000000  0.20000000  1.000000e-03 
  0.40000000  0.40000000  0.30000000  1.000000e-03 
  0.40000000  0.40000000  0.40000000  1.000000e-03 
  0.40000000  0.40000000  0.50000000  1.000000e-03 
  0.40000000  0.40000000  0.60000000  1.000000e-03 
  0.40000000  0.40000000  0.70000000  1.000000e-03 
  0.40000000  0.40000000  0.80000000  1.000000e-03 
  0.40000000  0.40000000  0.90000000  1.000000e-03 
  0.40000000  0.50000000  0.00000000  1.000000e-03 
  0.40000000  0.50000000  0.10000000  1.000000e-03 
  0.40000000  0.50000000  0.20000000  1.000000e-03 
  0.40000000  0.50000000  0.30000000  1.000000e-03 
  0.40000000  0.50000000  0.40000000  1.000000e-03 
  0.40000000  0.50000000  0.50000000  1.000000e-03 
  0.40000000  0.50000000  0.60000000  1.000000e-03 
  0.40000000  0.50000000  0.70000000  1.000000e-03 
  0.40000000  0.50000000  0.80000000  1.000000e-03 
  0.40000000  0.50000000  0.90000000  1.000000e-03 
  0.40000000  0.60000000  0.00000000  1.000000e-03 
  0.40000000  0.60000000  0.10000000  1.000000e-03 
  0.40000000  0.60000000  0.20000000  1.000000e-03 
  0.40000000  0.60000000  0.30000000  1.000000e-03 
  0.40000000  0.60000000  0.40000000  1.000000e-03 
  0.40000000  0.60000000  0.50000000  1.000000e-03 
  0.40000000  0.60000000  0.60000000  1.000000e-03 
  0.40000000  0.60000000  0.70000000  1.000000e-03 
  0.40000000  0.60000000  0.80000000  1.000000e-03 
  0.40000000  0.60000000  0.90000000  1.000000e-03 
  0.40000000  0.70000000  0.00000000  1.000000e-03 
  0.40000000  0.70000000  0.10000000  1.000000e-03 
  0.40000000  0.70000000  0.20000000  1.000000e-03 
  0.40000000  0.70000000  0.30000000  1.000000e-03 
  0.40000000  0.70000000  0.40000000  1.000000e-03 
  0.40000000  0.70000000  0.50000000  1.000000e-03 
  0.40000000  0.70000000  0.60000000  1.000000e-03 
  0.40000000  0.70000000  0.70000000  1.000000e-03 
  0.40000000  0.70000000  0.80000000  1.000000e-03 
  0.40000000  0.70000000  0.90000000  1.000000e-03 
  0.40000000  0.80000000  0.00000000  1.000000e-03 
  0.40000000  0.80000000  0.10000000  1.000000e-03 
  0.40000000  0.80000000  0.20000000  1.000000e-03 
  0.40000000  0.80000000  0.30000000  1.000000e-03 
  0.40000000  0.80000000  0.40000000  1.000000e-03 
  0.40000000  0.80000000  0.50000000  1.000000e-03 
  0.40000000  0.80000000  0.60000000  1.000000e-03 
  0.40000000  0.80000000  0.70000000  1.000000e-03 
  0.40000000  0.80000000  0.80000000  1.000000e-03 
  0.40000000  0.80000000  0.90000000  1.000000e-03 
  0.40000000  0.90000000  0.00000000  1.000000e-03 
  0.40000000  0.90000000  0.10000000  1.000000e-03 
  0.40000000  0.90000000  0.20000000  1.000000e-03 
  0.40000000  0.90000000  0.30000000  1.000000e-03 
  0.40000000  0.90000000  0.40000000  1.000000e-03 
  0.40000000  0.90000000  0.50000000  1.000000e-03 
  0.40000000  0.90000000  0.60000000  1.000000e-03 
  0.40000000  0.90000000  0.70000000  1.000000e-03 
  0.40000000  0.90000000  0.80000000  1.000000e-03 
  0.40000000  0.90000000  0.90000000  1.000000e-03 
  0.50000000  0.00000000  0.00000000  1.000000e-03 
  0.50000000  0.00000000  0.10000000  1.000000e-03 
  0.50000000  0.00000000  0.20000000  1.000000e-03 
  0.50000000  0.00000000  0.30000000  1.000000e-03 
  0.50000000  0.00000000  0.40000000  1.000000e-03 
  0.50000000  0.00000000  0.50000000  1.000000e-03 
  0.50000000  0.00000000  0.60000000  1.000000e-03 
  0.50000000  0.00000000  0.70000000  1.000000e-03 
  0.50000000  0.00000000  0.80000000  1.000000e-03 
  0.50000000  0.00000000  0.90000000  1.000000e-03 
  0.50000000  0.10000000  0.00000000  1.000000e-03 
  0.50000000  0.10000000  0.10000000  1.000000e-03 
  0.50000000  0.10000000  0.20000000  1.000000e-03 
  0.50000000  0.10000000  0.30000000  1.000000e-03 
  0.50000000  0.10000000  0.40000000  1.000000e-03 
  0.50000000  0.10000000  0.50000000  1.000000e-03 
  0.50000000  0.10000000  0.60000000  1.000000e-03 
  0.50000000  0.10000000  0.70000000  1.000000e-03 
  0.50000000  0.10000000  0.80000000  1.000000e-03 
  0.50000000  0.10000000  0.90000000  1.000000e-03 
  0.50000000  0.20000000  0.00000000  1.000000e-03 
  0.50000000  0.20000000  0.10000000  1.000000e-03 
  0.50000000  0.20000000  0.20000000  1.000000e-03 
  0.50000000  0.20000000  0.30000000  1.000000e-03 
  0.50000000  0.20000000  0.40000000  1.000000e-03 
  0.50000000  0.20000000  0.50000000  1.000000e-03 
  0.50000000  0.20000000  0.60000000  1.000000e-03 
  0.50000000  0.20000000  0.70000000  1.000000e-03 
  0.50000000  0.20000000  0.80000000  1.000000e-03 
  0.50000000  0.20000000  0.90000000  1.000000e-03 
  0.50000000  0.30000000  0.00000000  1.000000e-03 
  0.50000000  0.30000000  0.10000000  1.000000e-03 
  0.50000000  0.30000000  0.20000000  1.000000e-03 
  0.50000000  0.30000000  0.30000000  1.000000e-03 
  0.50000000  0.30000000  0.40000000  1.000000e-03 
  0.50000000  0.30000000  0.50000000  1.000000e-03 
  0.50000000  0.30000000  0.60000000  1.000000e-03 
  0.50000000  0.30000000  0.70000000  1.000000e-03 
  0.50000000  0.30000000  0.80000000  1.000000e-03 
  0.50000000  0.30000000  0.90000000  1.000000e-03 
  0.50000000  0.40000000  0.00000000  1.000000e-03 
  0.50000000  0.40000000  0.10000000  1.000000e-03 
  0.50000000  0.40000000  0.20000000  1.000000e-03 
  0.50000000  0.40000000  0.30000000  1.000000e-03 
  0.50000000  0.40000000  0.40000000  1.000000e-03 
  0.50000000  0.40000000  0.50000000  1.000000e-03 
  0.50000000  0.40000000  0.60000000  1.000000e-03 
  0.50000000  0.40000000  0.70000000  1.000000e-03 
  0.50000000  0.40000000  0.80000000  1.000000e-03 
  0.50000000  0.40000000  0.90000000  1.000000e-03 
  0.50000000  0.50000000  0.00000000  1.000000e-03 
  0.50000000  0.50000000  0.10000000  1.000000e-03 
  0.50000000  0.50000000  0.20000000  1.000000e-03 
  0.50000000  0.50000000  0.30000000  1.000000e-03 
  0.50000000  0.50000000  0.40000000  1.000000e-03 
  0.50000000  0.50000000  0.50000000  1.000000e-03 
  0.50000000  0.50000000  0.60000000  1.000000e-03 
  0.50000000  0.50000000  0.70000000  1.000000e-03 
  0.50000000  0.50000000  0.80000000  1.000000e-03 