# BERRY
###############
berry = true
berry_task=sc
berry_kmesh = 100 100 100
fermi_energy=7.84

kubo_freq_min= 0.0
kubo_freq_max= 10.0
kubo_freq_step= 0.03
kubo_adpt_smr=true

sc_eta=0.040
sc_phase_conv=2
###############


# W90
###############
num_bands         =   12
num_wann          =   8

num_iter          = 1000
num_print_cycles  = 40

dis_win_max       = 24.0d0
dis_froz_max      =  14.0d0
dis_num_iter      =  1200
dis_mix_ratio     = 1.d0


#restart=wannierise
#restart = plot

bands_plot : true
bands_num_points : 151
bands_plot_format : gnuplot

exclude_bands :  1-5

begin unit_cell_cart
bohr
-5.34 0.0 5.34
0.0 5.34 5.34
-5.34 5.34 0.0
end unit_cell_cart



#reciprocal lattice units
Begin Kpoint_Path
G 0.000    0.000    0.000  L 0.00000      0.50000      0.00000
L 0.00000      0.50000      0.00000  K 0.00000      0.62500      0.37500
K 0.00000      0.62500      0.37500 X 0.00000      0.50000      0.50000
X 0.00000      0.50000      0.50000 W 0.25000      0.75000      0.50000
W 0.25000      0.75000      0.50000 G 0.00000      0.00000      0.00000
End Kpoint_Path

begin projections
f=0.25,0.25,0.25 : s
f=0.25,0.25,0.25 : p
f= 0.0, 0.0, 0.0 : p
f= 0.0, 0.0, 0.0 : s
end projections


begin atoms_frac
Ga 0.00  0.00  0.00
As 0.25  0.25  0.25
end atoms_frac

mp_grid : 10 10 10


begin kpoints
0.0 0.0 0.0
0.0 0.0 0.1
0.0 0.0 0.2
0.0 0.0 0.3
0.0 0.0 0.4
0.0 0.0 0.5
0.0 0.0 0.6
0.0 0.0 0.7
0.0 0.0 0.8
0.0 0.0 0.9
0.0 0.1 0.0
0.0 0.1 0.1
0.0 0.1 0.2
0.0 0.1 0.3
0.0 0.1 0.4
0.0 0.1 0.5
0.0 0.1 0.6
0.0 0.1 0.7
0.0 0.1 0.8
0.0 0.1 0.9
0.0 0.2 0.0
0.0 0.2 0.1
0.0 0.2 0.2
0.0 0.2 0.3
0.0 0.2 0.4
0.0 0.2 0.5
0.0 0.2 0.6
0.0 0.2 0.7
0.0 0.2 0.8
0.0 0.2 0.9
0.0 0.3 0.0
0.0 0.3 0.1
0.0 0.3 0.2
0.0 0.3 0.3
0.0 0.3 0.4
0.0 0.3 0.5
0.0 0.3 0.6
0.0 0.3 0.7
0.0 0.3 0.8
0.0 0.3 0.9
0.0 0.4 0.0
0.0 0.4 0.1
0.0 0.4 0.2
0.0 0.4 0.3
0.0 0.4 0.4
0.0 0.4 0.5
0.0 0.4 0.6
0.0 0.4 0.7
0.0 0.4 0.8
0.0 0.4 0.9
0.0 0.5 0.0
0.0 0.5 0.1
0.0 0.5 0.2
0.0 0.5 0.3
0.0 0.5 0.4
0.0 0.5 0.5
0.0 0.5 0.6
0.0 0.5 0.7
0.0 0.5 0.8
0.0 0.5 0.9
0.0 0.6 0.0
0.0 0.6 0.1
0.0 0.6 0.2
0.0 0.6 0.3
0.0 0.6 0.4
0.0 0.6 0.5
0.0 0.6 0.6
0.0 0.6 0.7
0.0 0.6 0.8
0.0 0.6 0.9
0.0 0.7 0.0
0.0 0.7 0.1
0.0 0.7 0.2
0.0 0.7 0.3
0.0 0.7 0.4
0.0 0.7 0.5
0.0 0.7 0.6
0.0 0.7 0.7
0.0 0.7 0.8
0.0 0.7 0.9
0.0 0.8 0.0
0.0 0.8 0.1
0.0 0.8 0.2
0.0 0.8 0.3
0.0 0.8 0.4
0.0 0.8 0.5
0.0 0.8 0.6
0.0 0.8 0.7
0.0 0.8 0.8
0.0 0.8 0.9
0.0 0.9 0.0
0.0 0.9 0.1
0.0 0.9 0.2
0.0 0.9 0.3
0.0 0.9 0.4
0.0 0.9 0.5
0.0 0.9 0.6
0.0 0.9 0.7
0.0 0.9 0.8
0.0 0.9 0.9
0.1 0.0 0.0
0.1 0.0 0.1
0.1 0.0 0.2
0.1 0.0 0.3
0.1 0.0 0.4
0.1 0.0 0.5
0.1 0.0 0.6
0.1 0.0 0.7
0.1 0.0 0.8
0.1 0.0 0.9
0.1 0.1 0.0
0.1 0.1 0.1
0.1 0.1 0.2
0.1 0.1 0.3
0.1 0.1 0.4
0.1 0.1 0.5
0.1 0.1 0.6
0.1 0.1 0.7
0.1 0.1 0.8
0.1 0.1 0.9
0.1 0.2 0.0
0.1 0.2 0.1
0.1 0.2 0.2
0.1 0.2 0.3
0.1 0.2 0.4
0.1 0.2 0.5
0.1 0.2 0.6
0.1 0.2 0.7
0.1 0.2 0.8
0.1 0.2 0.9
0.1 0.3 0.0
0.1 0.3 0.1
0.1 0.3 0.2
0.1 0.3 0.3
0.1 0.3 0.4
0.1 0.3 0.5
0.1 0.3 0.6
0.1 0.3 0.7
0.1 0.3 0.8
0.1 0.3 0.9
0.1 0.4 0.0
0.1 0.4 0.1
0.1 0.4 0.2
0.1 0.4 0.3
0.1 0.4 0.4
0.1 0.4 0.5
0.1 0.4 0.6
0.1 0.4 0.7
0.1 0.4 0.8
0.1 0.4 0.9
0.1 0.5 0.0
0.1 0.5 0.1
0.1 0.5 0.2
0.1 0.5 0.3
0.1 0.5 0.4
0.1 0.5 0.5
0.1 0.5 0.6
0.1 0.5 0.7
0.1 0.5 0.8
0.1 0.5 0.9
0.1 0.6 0.0
0.1 0.6 0.1
0.1 0.6 0.2
0.1 0.6 0.3
0.1 0.6 0.4
0.1 0.6 0.5
0.1 0.6 0.6
0.1 0.6 0.7
0.1 0.6 0.8
0.1 0.6 0.9
0.1 0.7 0.0
0.1 0.7 0.1
0.1 0.7 0.2
0.1 0.7 0.3
0.1 0.7 0.4
0.1 0.7 0.5
0.1 0.7 0.6
0.1 0.7 0.7
0.1 0.7 0.8
0.1 0.7 0.9
0.1 0.8 0.0
0.1 0.8 0.1
0.1 0.8 0.2
0.1 0.8 0.3
0.1 0.8 0.4
0.1 0.8 0.5
0.1 0.8 0.6
0.1 0.8 0.7
0.1 0.8 0.8
0.1 0.8 0.9
0.1 0.9 0.0
0.1 0.9 0.1
0.1 0.9 0.2
0.1 0.9 0.3
0.1 0.9 0.4
0.1 0.9 0.5
0.1 0.9 0.6
0.1 0.9 0.7
0.1 0.9 0.8
0.1 0.9 0.9
0.2 0.0 0.0
0.2 0.0 0.1
0.2 0.0 0.2
0.2 0.0 0.3
0.2 0.0 0.4
0.2 0.0 0.5
0.2 0.0 0.6
0.2 0.0 0.7
0.2 0.0 0.8
0.2 0.0 0.9
0.2 0.1 0.0
0.2 0.1 0.1
0.2 0.1 0.2
0.2 0.1 0.3
0.2 0.1 0.4
0.2 0.1 0.5
0.2 0.1 0.6
0.2 0.1 0.7
0.2 0.1 0.8
0.2 0.1 0.9
0.2 0.2 0.0
0.2 0.2 0.1
0.2 0.2 0.2
0.2 0.2 0.3
0.2 0.2 0.4
0.2 0.2 0.5
0.2 0.2 0.6
0.2 0.2 0.7
0.2 0.2 0.8
0.2 0.2 0.9
0.2 0.3 0.0
0.2 0.3 0.1
0.2 0.3 0.2
0.2 0.3 0.3
0.2 0.3 0.4
0.2 0.3 0.5
0.2 0.3 0.6
0.2 0.3 0.7
0.2 0.3 0.8
0.2 0.3 0.9
0.2 0.4 0.0
0.2 0.4 0.1
0.2 0.4 0.2
0.2 0.4 0.3
0.2 0.4 0.4
0.2 0.4 0.5
0.2 0.4 0.6
0.2 0.4 0.7
0.2 0.4 0.8
0.2 0.4 0.9
0.2 0.5 0.0
0.2 0.5 0.1
0.2 0.5 0.2
0.2 0.5 0.3
0.2 0.5 0.4
0.2 0.5 0.5
0.2 0.5 0.6
0.2 0.5 0.7
0.2 0.5 0.8
0.2 0.5 0.9
0.2 0.6 0.0
0.2 0.6 0.1
0.2 0.6 0.2
0.2 0.6 0.3
0.2 0.6 0.4
0.2 0.6 0.5
0.2 0.6 0.6
0.2 0.6 0.7
0.2 0.6 0.8
0.2 0.6 0.9
0.2 0.7 0.0
0.2 0.7 0.1
0.2 0.7 0.2
0.2 0.7 0.3
0.2 0.7 0.4
0.2 0.7 0.5
0.2 0.7 0.6
0.2 0.7 0.7
0.2 0.7 0.8
0.2 0.7 0.9
0.2 0.8 0.0
0.2 0.8 0.1
0.2 0.8 0.2
0.2 0.8 0.3
0.2 0.8 0.4
0.2 0.8 0.5
0.2 0.8 0.6
0.2 0.8 0.7
0.2 0.8 0.8
0.2 0.8 0.9
0.2 0.9 0.0
0.2 0.9 0.1
0.2 0.9 0.2
0.2 0.9 0.3
0.2 0.9 0.4
0.2 0.9 0.5
0.2 0.9 0.6
0.2 0.9 0.7
0.2 0.9 0.8
0.2 0.9 0.9
0.3 0.0 0.0
0.3 0.0 0.1
0.3 0.0 0.2
0.3 0.0 0.3
0.3 0.0 0.4
0.3 0.0 0.5
0.3 0.0 0.6
0.3 0.0 0.7
0.3 0.0 0.8
0.3 0.0 0.9
0.3 0.1 0.0
0.3 0.1 0.1
0.3 0.1 0.2
0.3 0.1 0.3
0.3 0.1 0.4
0.3 0.1 0.5
0.3 0.1 0.6
0.3 0.1 0.7
0.3 0.1 0.8
0.3 0.1 0.9
0.3 0.2 0.0
0.3 0.2 0.1
0.3 0.2 0.2
0.3 0.2 0.3
0.3 0.2 0.4
0.3 0.2 0.5
0.3 0.2 0.6
0.3 0.2 0.7
0.3 0.2 0.8
0.3 0.2 0.9
0.3 0.3 0.0
0.3 0.3 0.1
0.3 0.3 0.2
0.3 0.3 0.3
0.3 0.3 0.4
0.3 0.3 0.5
0.3 0.3 0.6
0.3 0.3 0.7
0.3 0.3 0.8
0.3 0.3 0.9
0.3 0.4 0.0
0.3 0.4 0.1
0.3 0.4 0.2
0.3 0.4 0.3
0.3 0.4 0.4
0.3 0.4 0.5
0.3 0.4 0.6
0.3 0.4 0.7
0.3 0.4 0.8
0.3 0.4 0.9
0.3 0.5 0.0
0.3 0.5 0.1
0.3 0.5 0.2
0.3 0.5 0.3
0.3 0.5 0.4
0.3 0.5 0.5
0.3 0.5 0.6
0.3 0.5 0.7
0.3 0.5 0.8
0.3 0.5 0.9
0.3 0.6 0.0
0.3 0.6 0.1
0.3 0.6 0.2
0.3 0.6 0.3
0.3 0.6 0.4
0.3 0.6 0.5
0.3 0.6 0.6
0.3 0.6 0.7
0.3 0.6 0.8
0.3 0.6 0.9
0.3 0.7 0.0
0.3 0.7 0.1
0.3 0.7 0.2
0.3 0.7 0.3
0.3 0.7 0.4
0.3 0.7 0.5
0.3 0.7 0.6
0.3 0.7 0.7
0.3 0.7 0.8
0.3 0.7 0.9
0.3 0.8 0.0
0.3 0.8 0.1
0.3 0.8 0.2
0.3 0.8 0.3
0.3 0.8 0.4
0.3 0.8 0.5
0.3 0.8 0.6
0.3 0.8 0.7
0.3 0.8 0.8
0.3 0.8 0.9
0.3 0.9 0.0
0.3 0.9 0.1
0.3 0.9 0.2
0.3 0.9 0.3
0.3 0.9 0.4
0.3 0.9 0.5
0.3 0.9 0.6
0.3 0.9 0.7
0.3 0.9 0.8
0.3 0.9 0.9
0.4 0.0 0.0
0.4 0.0 0.1
0.4 0.0 0.2
0.4 0.0 0.3
0.4 0.0 0.4
0.4 0.0 0.5
0.4 0.0 0.6
0.4 0.0 0.7
0.4 0.0 0.8
0.4 0.0 0.9
0.4 0.1 0.0
0.4 0.1 0.1
0.4 0.1 0.2
0.4 0.1 0.3
0.4 0.1 0.4
0.4 0.1 0.5
0.4 0.1 0.6
0.4 0.1 0.7
0.4 0.1 0.8
0.4 0.1 0.9
0.4 0.2 0.0
0.4 0.2 0.1
0.4 0.2 0.2
0.4 0.2 0.3
0.4 0.2 0.4
0.4 0.2 0.5
0.4 0.2 0.6
0.4 0.2 0.7
0.4 0.2 0.8
0.4 0.2 0.9
0.4 0.3 0.0
0.4 0.3 0.1
0.4 0.3 0.2
0.4 0.3 0.3
0.4 0.3 0.4
0.4 0.3 0.5
0.4 0.3 0.6
0.4 0.3 0.7
0.4 0.3 0.8
0.4 0.3 0.9
0.4 0.4 0.0
0.4 0.4 0.1
0.4 0.4 0.2
0.4 0.4 0.3
0.4 0.4 0.4
0.4 0.4 0.5
0.4 0.4 0.6
0.4 0.4 0.7
0.4 0.4 0.8
0.4 0.4 0.9
0.4 0.5 0.0
0.4 0.5 0.1
0.4 0.5 0.2
0.4 0.5 0.3
0.4 0.5 0.4
0.4 0.5 0.5
0.4 0.5 0.6
0.4 0.5 0.7
0.4 0.5 0.8
0.4 0.5 0.9
0.4 0.6 0.0
0.4 0.6 0.1
0.4 0.6 0.2
0.4 0.6 0.3
0.4 0.6 0.4
0.4 0.6 0.5
0.4 0.6 0.6
0.4 0.6 0.7
0.4 0.6 0.8
0.4 0.6 0.9
0.4 0.7 0.0
0.4 0.7 0.1
0.4 0.7 0.2
0.4 0.7 0.3
0.4 0.7 0.4
0.4 0.7 0.5
0.4 0.7 0.6
0.4 0.7 0.7
0.4 0.7 0.8
0.4 0.7 0.9
0.4 0.8 0.0
0.4 0.8 0.1
0.4 0.8 0.2
0.4 0.8 0.3
0.4 0.8 0.4
0.4 0.8 0.5
0.4 0.8 0.6
0.4 0.8 0.7
0.4 0.8 0.8
0.4 0.8 0.9
0.4 0.9 0.0
0.4 0.9 0.1
0.4 0.9 0.2
0.4 0.9 0.3
0.4 0.9 0.4
0.4 0.9 0.5
0.4 0.9 0.6
0.4 0.9 0.7
0.4 0.9 0.8
0.4 0.9 0.9
0.5 0.0 0.0
0.5 0.0 0.1
0.5 0.0 0.2
0.5 0.0 0.3
0.5 0.0 0.4
0.5 0.0 0.5
0.5 0.0 0.6
0.5 0.0 0.7
0.5 0.0 0.8
0.5 0.0 0.9
0.5 0.1 0.0
0.5 0.1 0.1
0.5 0.1 0.2
0.5 0.1 0.3
0.5 0.1 0.4
0.5 0.1 0.5
0.5 0.1 0.6
0.5 0.1 0.7
0.5 0.1 0.8
0.5 0.1 0.9
0.5 0.2 0.0
0.5 0.2 0.1
0.5 0.2 0.2
0.5 0.2 0.3
0.5 0.2 0.4
0.5 0.2 0.5
0.5 0.2 0.6
0.5 0.2 0.7
0.5 0.2 0.8
0.5 0.2 0.9
0.5 0.3 0.0
0.5 0.3 0.1
0.5 0.3 0.2
0.5 0.3 0.3
0.5 0.3 0.4
0.5 0.3 0.5
0.5 0.3 0.6
0.5 0.3 0.7
0.5 0.3 0.8
0.5 0.3 0.9
0.5 0.4 0.0
0.5 0.4 0.1
0.5 0.4 0.2
0.5 0.4 0.3
0.5 0.4 0.4
0.5 0.4 0.5
0.5 0.4 0.6
0.5 0.4 0.7
0.5 0.4 0.8
0.5 0.4 0.9
0.5 0.5 0.0
0.5 0.5 0.1
0.5 0.5 0.2
0.5 0.5 0.3
0.5 0.5 0.4
0.5 0.5 0.5
0.5 0.5 0.6
0.5 0.5 0.7
0.5 0.5 0.8
0.5 0.5 0.9
0.5 0.6 0.0
0.5 0.6 0.1
0.5 0.6 0.2
0.5 0.6 0.3
0.5 0.6 0.4
0.5 0.6 0.5
0.5 0.6 0.6
0.5 0.6 0.7
0.5 0.6 0.8
0.5 0.6 0.9
0.5 0.7 0.0
0.5 0.7 0.1
0.5 0.7 0.2
0.5 0.7 0.3
0.5 0.7 0.4
0.5 0.7 0.5
0.5 0.7 0.6
0.5 0.7 0.7
0.5 0.7 0.8
0.5 0.7 0.9
0.5 0.8 0.0
0.5 0.8 0.1
0.5 0.8 0.2
0.5 0.8 0.3
0.5 0.8 0.4
0.5 0.8 0.5
0.5 0.8 0.6
0.5 0.8 0.7
0.5 0.8 0.8
0.5 0.8 0.9
0.5 0.9 0.0
0.5 0.9 0.1
0.5 0.9 0.2
0.5 0.9 0.3
0.5 0.9 0.4
0.5 0.9 0.5
0.5 0.9 0.6
0.5 0.9 0.7
0.5 0.9 0.8
0.5 0.9 0.9
0.6 0.0 0.0
0.6 0.0 0.1
0.6 0.0 0.2
0.6 0.0 0.3
0.6 0.0 0.4
0.6 0.0 0.5
0.6 0.0 0.6
0.6 0.0 0.7
0.6 0.0 0.8
0.6 0.0 0.9
0.6 0.1 0.0
0.6 0.1 0.1
0.6 0.1 0.2
0.6 0.1 0.3
0.6 0.1 0.4
0.6 0.1 0.5
0.6 0.1 0.6
0.6 0.1 0.7
0.6 0.1 0.8
0.6 0.1 0.9
0.6 0.2 0.0
0.6 0.2 0.1
0.6 0.2 0.2
0.6 0.2 0.3
0.6 0.2 0.4
0.6 0.2 0.5
0.6 0.2 0.6
0.6 0.2 0.7
0.6 0.2 0.8
0.6 0.2 0.9
0.6 0.3 0.0
0.6 0.3 0.1
0.6 0.3 0.2
0.6 0.3 0.3
0.6 0.3 0.4
0.6 0.3 0.5
0.6 0.3 0.6
0.6 0.3 0.7
0.6 0.3 0.8
0.6 0.3 0.9
0.6 0.4 0.0
0.6 0.4 0.1
0.6 0.4 0.2
0.6 0.4 0.3
0.6 0.4 0.4
0.6 0.4 0.5
0.6 0.4 0.6
0.6 0.4 0.7
0.6 0.4 0.8
0.6 0.4 0.9
0.6 0.5 0.0
0.6 0.5 0.1
0.6 0.5 0.2
0.6 0.5 0.3
0.6 0.5 0.4
0.6 0.5 0.5
0.6 0.5 0.6
0.6 0.5 0.7
0.6 0.5 0.8
0.6 0.5 0.9
0.6 0.6 0.0
0.6 0.6 0.1
0.6 0.6 0.2
0.6 0.6 0.3
0.6 0.6 0.4
0.6 0.6 0.5
0.6 0.6 0.6
0.6 0.6 0.7
0.6 0.6 0.8
0.6 0.6 0.9
0.6 0.7 0.0
0.6 0.7 0.1
0.6 0.7 0.2
0.6 0.7 0.3
0.6 0.7 0.4
0.6 0.7 0.5
0.6 0.7 0.6
0.6 0.7 0.7
0.6 0.7 0.8
0.6 0.7 0.9
0.6 0.8 0.0
0.6 0.8 0.1
0.6 0.8 0.2
0.6 0.8 0.3
0.6 0.8 0.4
0.6 0.8 0.5
0.6 0.8 0.6
0.6 0.8 0.7
0.6 0.8 0.8
0.6 0.8 0.9
0.6 0.9 0.0
0.6 0.9 0.1
0.6 0.9 0.2
0.6 0.9 0.3
0.6 0.9 0.4
0.6 0.9 0.5
0.6 0.9 0.6
0.6 0.9 0.7
0.6 0.9 0.8
0.6 0.9 0.9
0.7 0.0 0.0
0.7 0.0 0.1
0.7 0.0 0.2
0.7 0.0 0.3
0.7 0.0 0.4
0.7 0.0 0.5
0.7 0.0 0.6
0.7 0.0 0.7
0.7 0.0 0.8
0.7 0.0 0.9
0.7 0.1 0.0
0.7 0.1 0.1
0.7 0.1 0.2
0.7 0.1 0.3
0.7 0.1 0.4
0.7 0.1 0.5
0.7 0.1 0.6
0.7 0.1 0.7
0.7 0.1 0.8
0.7 0.1 0.9
0.7 0.2 0.0
0.7 0.2 0.1
0.7 0.2 0.2
0.7 0.2 0.3
0.7 0.2 0.4
0.7 0.2 0.5
0.7 0.2 0.6
0.7 0.2 0.7
0.7 0.2 0.8
0.7 0.2 0.9
0.7 0.3 0.0
0.7 0.3 0.1
0.7 0.3 0.2
0.7 0.3 0.3
0.7 0.3 0.4
0.7 0.3 0.5
0.7 0.3 0.6
0.7 0.3 0.7
0.7 0.3 0.8
0.7 0.3 0.9
0.7 0.4 0.0
0.7 0.4 0.1
0.7 0.4 0.2
0.7 0.4 0.3
0.7 0.4 0.4
0.7 0.4 0.5
0.7 0.4 0.6
0.7 0.4 0.7
0.7 0.4 0.8
0.7 0.4 0.9
0.7 0.5 0.0
0.7 0.5 0.1
0.7 0.5 0.2
0.7 0.5 0.3
0.7 0.5 0.4
0.7 0.5 0.5
0.7 0.5 0.6
0.7 0.5 0.7
0.7 0.5 0.8
0.7 0.5 0.9
0.7 0.6 0.0
0.7 0.6 0.1
0.7 0.6 0.2
0.7 0.6 0.3
0.7 0.6 0.4
0.7 0.6 0.5
0.7 0.6 0.6
0.7 0.6 0.7
0.7 0.6 0.8
0.7 0.6 0.9
0.7 0.7 0.0
0.7 0.7 0.1
0.7 0.7 0.2
0.7 0.7 0.3
0.7 0.7 0.4
0.7 0.7 0.5
0.7 0.7 0.6
0.7 0.7 0.7
0.7 0.7 0.8
0.7 0.7 0.9
0.7 0.8 0.0
0.7 0.8 0.1
0.7 0.8 0.2
0.7 0.8 0.3
0.7 0.8 0.4
0.7 0.8 0.5
0.7 0.8 0.6
0.7 0.8 0.7
0.7 0.8 0.8
0.7 0.8 0.9
0.7 0.9 0.0
0.7 0.9 0.1
0.7 0.9 0.2
0.7 0.9 0.3
0.7 0.9 0.4
0.7 0.9 0.5
0.7 0.9 0.6
0.7 0.9 0.7
0.7 0.9 0.8
0.7 0.9 0.9
0.8 0.0 0.0
0.8 0.0 0.1
0.8 0.0 0.2
0.8 0.0 0.3
0.8 0.0 0.4
0.8 0.0 0.5
0.8 0.0 0.6
0.8 0.0 0.7
0.8 0.0 0.8
0.8 0.0 0.9
0.8 0.1 0.0
0.8 0.1 0.1
0.8 0.1 0.2
0.8 0.1 0.3
0.8 0.1 0.4
0.8 0.1 0.5
0.8 0.1 0.6
0.8 0.1 0.7
0.8 0.1 0.8
0.8 0.1 0.9
0.8 0.2 0.0
0.8 0.2 0.1
0.8 0.2 0.2
0.8 0.2 0.3
0.8 0.2 0.4
0.8 0.2 0.5
0.8 0.2 0.6
0.8 0.2 0.7
0.8 0.2 0.8
0.8 0.2 0.9
0.8 0.3 0.0
0.8 0.3 0.1
0.8 0.3 0.2
0.8 0.3 0.3
0.8 0.3 0.4
0.8 0.3 0.5
0.8 0.3 0.6
0.8 0.3 0.7
0.8 0.3 0.8
0.8 0.3 0.9
0.8 0.4 0.0
0.8 0.4 0.1
0.8 0.4 0.2
0.8 0.4 0.3
0.8 0.4 0.4
0.8 0.4 0.5
0.8 0.4 0.6
0.8 0.4 0.7
0.8 0.4 0.8
0.8 0.4 0.9
0.8 0.5 0.0
0.8 0.5 0.1
0.8 0.5 0.2
0.8 0.5 0.3
0.8 0.5 0.4
0.8 0.5 0.5
0.8 0.5 0.6
0.8 0.5 0.7
0.8 0.5 0.8
0.8 0.5 0.9
0.8 0.6 0.0
0.8 0.6 0.1
0.8 0.6 0.2
0.8 0.6 0.3
0.8 0.6 0.4
0.8 0.6 0.5
0.8 0.6 0.6
0.8 0.6 0.7
0.8 0.6 0.8
0.8 0.6 0.9
0.8 0.7 0.0
0.8 0.7 0.1
0.8 0.7 0.2
0.8 0.7 0.3
0.8 0.7 0.4
0.8 0.7 0.5
0.8 0.7 0.6
0.8 0.7 0.7
0.8 0.7 0.8
0.8 0.7 0.9
0.8 0.8 0.0
0.8 0.8 0.1
0.8 0.8 0.2
0.8 0.8 0.3
0.8 0.8 0.4
0.8 0.8 0.5
0.8 0.8 0.6
0.8 0.8 0.7
0.8 0.8 0.8
0.8 0.8 0.9
0.8 0.9 0.0
0.8 0.9 0.1
0.8 0.9 0.2
0.8 0.9 0.3
0.8 0.9 0.4
0.8 0.9 0.5
0.8 0.9 0.6
0.8 0.9 0.7
0.8 0.9 0.8
0.8 0.9 0.9
0.9 0.0 0.0
0.9 0.0 0.1
0.9 0.0 0.2
0.9 0.0 0.3
0.9 0.0 0.4
0.9 0.0 0.5
0.9 0.0 0.6
0.9 0.0 0.7
0.9 0.0 0.8
0.9 0.0 0.9
0.9 0.1 0.0
0.9 0.1 0.1
0.9 0.1 0.2
0.9 0.1 0.3
0.9 0.1 0.4
0.9 0.1 0.5
0.9 0.1 0.6
0.9 0.1 0.7
0.9 0.1 0.8
0.9 0.1 0.9
0.9 0.2 0.0
0.9 0.2 0.1
0.9 0.2 0.2
0.9 0.2 0.3
0.9 0.2 0.4
0.9 0.2 0.5
0.9 0.2 0.6
0.9 0.2 0.7
0.9 0.2 0.8
0.9 0.2 0.9
0.9 0.3 0.0
0.9 0.3 0.1
0.9 0.3 0.2
0.9 0.3 0.3
0.9 0.3 0.4
0.9 0.3 0.5
0.9 0.3 0.6
0.9 0.3 0.7
0.9 0.3 0.8
0.9 0.3 0.9
0.9 0.4 0.0
0.9 0.4 0.1
0.9 0.4 0.2
0.9 0.4 0.3
0.9 0.4 0.4
0.9 0.4 0.5
0.9 0.4 0.6
0.9 0.4 0.7
0.9 0.4 0.8
0.9 0.4 0.9
0.9 0.5 0.0
0.9 0.5 0.1
0.9 0.5 0.2
0.9 0.5 0.3
0.9 0.5 0.4
0.9 0.5 0.5
0.9 0.5 0.6
0.9 0.5 0.7
0.9 0.5 0.8
0.9 0.5 0.9
0.9 0.6 0.0
0.9 0.6 0.1
0.9 0.6 0.2
0.9 0.6 0.3
0.9 0.6 0.4
0.9 0.6 0.5
0.9 0.6 0.6
0.9 0.6 0.7
0.9 0.6 0.8
0.9 0.6 0.9
0.9 0.7 0.0
0.9 0.7 0.1
0.9 0.7 0.2
0.9 0.7 0.3
0.9 0.7 0.4
0.9 0.7 0.5
0.9 0.7 0.6
0.9 0.7 0.7
0.9 0.7 0.8
0.9 0.7 0.9
0.9 0.8 0.0
0.9 0.8 0.1
0.9 0.8 0.2
0.9 0.8 0.3
0.9 0.8 0.4
0.9 0.8 0.5
0.9 0.8 0.6
0.9 0.8 0.7
0.9 0.8 0.8
0.9 0.8 0.9
0.9 0.9 0.0
0.9 0.9 0.1
0.9 0.9 0.2
0.9 0.9 0.3
0.9 0.9 0.4
0.9 0.9 0.5
0.9 0.9 0.6
0.9 0.9 0.7
0.9 0.9 0.8
0.9 0.9 0.9
end kpoints


###############
