iprint          = 4
num_bands       = 30 
num_wann        = 10 
conv_tol        = 1.0d-14 
conv_window     = 10 

dis_win_max     = -0.14
dis_froz_max    = -2.150 
dis_conv_tol    = 1.0d-12 
dis_conv_window = 10 
dis_mix_ratio   = 0.5 

guiding_centres =  .true.
num_print_cycles = 1
gamma_only = .true.
translate_home_cell=.true.

begin unit_cell_cart 
ang 
 30.0  0.00  0.00 
 0.00 10.00  0.00 
 0.00  0.00 10.00 
end unit_cell_cart 

begin atoms_frac 
 Na   0.0  0.5  0.5
 Na   0.1  0.5  0.5
 Na   0.2  0.5  0.5
 Na   0.3  0.5  0.5
 Na   0.4  0.5  0.5
 Na   0.5  0.5  0.5
 Na   0.6  0.5  0.5
 Na   0.7  0.5  0.5
 Na   0.8  0.5  0.5
 Na   0.9 0.5  0.5
end atoms_frac 

begin projections 
Na:s
end projections 

mp_grid : 1 1 1 

begin kpoints 
  0.00000000  0.00000000  0.00000000 
end kpoints 

begin kpoint_path
G 0.00000  0.00000 0.0000 X 0.500000  0.00000 0.0000
!G 0.000000  0.00000 0.0000 Y 0.000000  0.50000 0.0000
!G 0.00000  0.00000 0.0000 Z 0.000000  0.00000 0.50000
end kpoint_path
