 &control
    calculation='nscf'
    restart_mode='from_scratch',
    pseudo_dir = './',
    outdir='./'
    prefix='Te'
    verbosity='high'
    wf_collect=.true.
 /
 &system
    ibrav = 4,  celldm(1)=8.422509341, celldm(3)=1.3368, nat= 3, ntyp= 1,
    ecutwfc = 20
    lspinorb=.false.,
    noncolin=.false.
    occupations='smearing', smearing='cold', degauss=0.02
    nbnd=14
    nosym=.true.
 /
 &electrons
    diago_full_acc=.true.
    startingwfc='random'
    diagonalization='cg'
    conv_thr=1.0e-10
 /

ATOMIC_SPECIES
Te 1.0  Te.pbe-n-nc.UPF

ATOMIC_POSITIONS crystal
Te   0.274036   0.274036  0.00000000000000000000000000  
Te  -0.274036   0.000000  0.33333333333333333333333357  
Te  -0.000000  -0.274036  0.66666666666666666666666643  

K_POINTS {crystal}
36
  0.000000000000   0.000000000000   0.000000000000   0.027777777778
  0.000000000000   0.333333333333   0.000000000000   0.027777777778
  0.000000000000   0.666666666667   0.000000000000   0.027777777778
  0.333333333333   0.000000000000   0.000000000000   0.027777777778
  0.333333333333   0.333333333333   0.000000000000   0.027777777778
  0.333333333333   0.666666666667   0.000000000000   0.027777777778
  0.666666666667   0.000000000000   0.000000000000   0.027777777778
  0.666666666667   0.333333333333   0.000000000000   0.027777777778
  0.666666666667   0.666666666667   0.000000000000   0.027777777778
  0.000000000000   0.000000000000   0.250000000000   0.027777777778
  0.000000000000   0.333333333333   0.250000000000   0.027777777778
  0.000000000000   0.666666666667   0.250000000000   0.027777777778
  0.333333333333   0.000000000000   0.250000000000   0.027777777778
  0.333333333333   0.333333333333   0.250000000000   0.027777777778
  0.333333333333   0.666666666667   0.250000000000   0.027777777778
  0.666666666667   0.000000000000   0.250000000000   0.027777777778
  0.666666666667   0.333333333333   0.250000000000   0.027777777778
  0.666666666667   0.666666666667   0.250000000000   0.027777777778
  0.000000000000   0.000000000000   0.500000000000   0.027777777778
  0.000000000000   0.333333333333   0.500000000000   0.027777777778
  0.000000000000   0.666666666667   0.500000000000   0.027777777778
  0.333333333333   0.000000000000   0.500000000000   0.027777777778
  0.333333333333   0.333333333333   0.500000000000   0.027777777778
  0.333333333333   0.666666666667   0.500000000000   0.027777777778
  0.666666666667   0.000000000000   0.500000000000   0.027777777778
  0.666666666667   0.333333333333   0.500000000000   0.027777777778
  0.666666666667   0.666666666667   0.500000000000   0.027777777778
  0.000000000000   0.000000000000   0.750000000000   0.027777777778
  0.000000000000   0.333333333333   0.750000000000   0.027777777778
  0.000000000000   0.666666666667   0.750000000000   0.027777777778
  0.333333333333   0.000000000000   0.750000000000   0.027777777778
  0.333333333333   0.333333333333   0.750000000000   0.027777777778
  0.333333333333   0.666666666667   0.750000000000   0.027777777778
  0.666666666667   0.000000000000   0.750000000000   0.027777777778
  0.666666666667   0.333333333333   0.750000000000   0.027777777778
  0.666666666667   0.666666666667   0.750000000000   0.027777777778
