&inputpp
    outdir='./'
    prefix='Te',
    seedname = 'Te'
    write_mmn = .true.
    write_amn = .true.
    write_uHu = .true.
    uHu_formatted=.true.
/
