
num_iter=1000

uHu_formatted=.true.

dis_win_min=-0.5
dis_win_max=10
dis_froz_min=0.0
dis_froz_max=8


bands_plot=true
bands_num_points=200
begin kpoint_path
A 0.0  0.0  0.5  G 0.0  0.0  0.0
G 0.0  0.0  0.0  H 0.33333 0.33333 0.5
H 0.33333 0.33333 0.5  A 0.0  0.0  0.5
A 0.0  0.0  0.5  L 0.5  0.0  0.5
L 0.5  0.0  0.5   H 0.33333 0.33333 0.5
H 0.33333 0.33333 0.5  K 0.33333 0.33333 0.0
K 0.33333 0.33333 0.0 G 0.0  0.0  0.0
G 0.0  0.0  0.0   M 0.5  0.0  0.0
M 0.5  0.0  0.0   K 0.33333 0.33333 0.0
end kpoint_path


num_bands=14
num_wann=9
Begin Projections
f=  0.274036,   0.274036,  0.0000000000000000000  :px,py,pz:z= 0,0,1:x=0.5,0.866025404,0
f= -0.274036,   0.000000,  0.3333333333333333357  :px,py,pz:z= 0,0,1:x=-1,0,0
f= -0.000000,  -0.274036,  0.6666666666666666643  :px,py,pz:z= 0,0,1:x=0.5,-0.866025404,0
end projections

spinors = .false.

begin unit_cell_cart
     4.4570000     0.0000000     0.0000000
    -2.2285000     3.8598752     0.0000000
     0.0000000     0.0000000     5.9581176
end unit_cell_cart

begin atoms_frac
Te   0.274036   0.274036  0.00000000000000000000000000
Te  -0.274036   0.000000  0.33333333333333333333333357
Te  -0.000000  -0.274036  0.66666666666666666666666643
end atoms_frac

mp_grid =     3     3     4

begin kpoints
  0.000000000000   0.000000000000   0.000000000000
  0.000000000000   0.333333333333   0.000000000000
  0.000000000000   0.666666666667   0.000000000000
  0.333333333333   0.000000000000   0.000000000000
  0.333333333333   0.333333333333   0.000000000000
  0.333333333333   0.666666666667   0.000000000000
  0.666666666667   0.000000000000   0.000000000000
  0.666666666667   0.333333333333   0.000000000000
  0.666666666667   0.666666666667   0.000000000000
  0.000000000000   0.000000000000   0.250000000000
  0.000000000000   0.333333333333   0.250000000000
  0.000000000000   0.666666666667   0.250000000000
  0.333333333333   0.000000000000   0.250000000000
  0.333333333333   0.333333333333   0.250000000000
  0.333333333333   0.666666666667   0.250000000000
  0.666666666667   0.000000000000   0.250000000000
  0.666666666667   0.333333333333   0.250000000000
  0.666666666667   0.666666666667   0.250000000000
  0.000000000000   0.000000000000   0.500000000000
  0.000000000000   0.333333333333   0.500000000000
  0.000000000000   0.666666666667   0.500000000000
  0.333333333333   0.000000000000   0.500000000000
  0.333333333333   0.333333333333   0.500000000000
  0.333333333333   0.666666666667   0.500000000000
  0.666666666667   0.000000000000   0.500000000000
  0.666666666667   0.333333333333   0.500000000000
  0.666666666667   0.666666666667   0.500000000000
  0.000000000000   0.000000000000   0.750000000000
  0.000000000000   0.333333333333   0.750000000000
  0.000000000000   0.666666666667   0.750000000000
  0.333333333333   0.000000000000   0.750000000000
  0.333333333333   0.333333333333   0.750000000000
  0.333333333333   0.666666666667   0.750000000000
  0.666666666667   0.000000000000   0.750000000000
  0.666666666667   0.333333333333   0.750000000000
  0.666666666667   0.666666666667   0.750000000000
 end kpoints
