&inputpp
  outdir     =  './'
  prefix     =  'si'
  seedname   =  'si'
  write_amn  = .true.
  write_mmn  = .true.
  write_unk  = .true.
  ! SCDM keywords
  scdm_proj         = true
  scdm_entanglement = 'gaussian'
  scdm_mu           = 12.5
  scdm_sigma        =  2
/
